LAMMPS (23 Jun 2022 - Update 2)
WARNING: Using I/O redirection is unreliable with parallel runs. Better use -in switch to read input file. (../lammps.cpp:530)
####################################################
# Preprocessing Li2SO4 in water
#################### SETTING UP ####################
units real
dimension 3
newton on
boundary p p p
atom_style full

#################### VARIABLES ####################
variable Temp equal 298.15    # Temperature in K
variable Pres equal 1    # Pressure in atm.

variable RandomSeed equal 42 # The random seed for velocity
variable tstep equal 1 # timestep in fs

#################### NPT ####################
variable Ninptpre equal 10000 # Pre-initialize the NPT ensemble (very small timesteps)
variable Ninpt equal 5000000  # Initialize the NPT ensemble
variable Npnpt equal 5000000  # Production in the NPT ensemble (volume)

#################### NVT ####################
variable Ninvtpre equal 10000  # Pre-initialize the NVT ensemble (very small timesteps)
variable Ninvt equal 2500000   # Initialize the NVT ensemble 2.5Mstep
variable Nrun1 equal 250000  # production in the NVT ensemble (Transport properties)
variable Nrun2 equal 1000000  # production in the NVT ensemble (Transport properties)
variable Nrun3 equal 2500000  # production in the NVT ensemble (Transport properties)
variable Nrun4 equal 5000000  # production in the NVT ensemble (Transport properties)

variable Nf equal 100000      # Nfreq (fix ave/time and thermo)
variable Ne equal  1          # Nevery (fix ave/time)
variable Nr equal ${Nf}/${Ne} # Nrepeat (fix ave/time)
variable Nr equal 100000/${Ne} 
variable Nr equal 100000/1 
variable Nd equal ${Nf} 	  # Frequency of outputting positions of atoms in the NVT ensemble
variable Nd equal 100000 	  
variable NBR equal ${Npnpt}/100 # Block averaging for density (NPT)
variable NBR equal 5000000/100 

variable nb equal 10          # Number of blocks (fix ordern)
variable nbe equal 20         # Number of block elements (fix ordern)
variable Nvisc equal 5        # Nevery for viscosity (fix ordern: sample data at (Nvisc*2))
variable Ncond equal 5        # Nevery for Tconductivity (fix ordern: sample data at (Ncond*2))
variable Ndiff equal 1000     # Nevery for diffusivity (fix ordern: sample data at (Ndiff))
variable Nwrit equal 100000   # Nwrite for transport properties (fix ordern: write every (Nwrit))

variable Nrdfe equal 1000     # Nevery for RDF (fix ave/time)
variable Nrdfw equal 1000     # Nwrite for RDF (compute rdf/ext: write every (Nrdfw*Nrdfe))
variable binnum equal 2000    # Number of bins for RDF

#################### ATOM DEFINITION and FORCEFIELD ####################
read_data ./data.lmp                     # read the positions
Reading data file ...
  orthogonal box = (0 0 0) to (26.379509 26.379509 26.379509)
  2 by 2 by 3 MPI processor grid
  reading atoms ...
  1608 atoms
  scanning bonds ...
  2 = max bonds/atom
  scanning angles ...
  1 = max angles/atom
  reading bonds ...
  1000 bonds
  reading angles ...
  500 angles
Finding 1-2 1-3 1-4 neighbors ...
  special bond factors lj:    0        0        0       
  special bond factors coul:  0        0        0       
     2 = max # of 1-2 neighbors
     1 = max # of 1-3 neighbors
     1 = max # of 1-4 neighbors
     2 = max # of special neighbors
  special bonds CPU = 0.003 seconds
  read_data CPU = 0.023 seconds
include ./forcefield.data                # read the force field
#--------INTERMOLECULAR POTENTIAL -------------------#
# --------Developed for MadridT KCl + TIP4P/2005-----#

mass 1 15.9994	# Ow
mass 2 1.008	# Hw
mass 3 6.941	# Li
mass 4 35.453	# Cl


pair_style lj/cut/tip4p/long 1 2 1 1 0.1546 10.0
kspace_style pppm/tip4p 1.0e-5
pair_modify mix arithmetic tail yes # ATC and Lorentz-Berthelot combining rules

#-----------------Combinations----------------------------
# atomtype atomtype epsilon sigma

pair_coeff 1 1 0.185200 3.15890    # Ow-Ow
pair_coeff 1 2 0.000000 0.00000    # Ow-Hw
pair_coeff 1 3 0.167459 2.12000    # Ow-Li
pair_coeff 1 4 0.014814 4.23867    # Ow-Cl

pair_coeff 2 2 0.000000 0.00000    # Hw-Hw
pair_coeff 2 3 0.000000 0.00000    # Hw-K
pair_coeff 2 4 0.000000 0.00000    # Hw-Cl

pair_coeff 3 3 0.103989 1.43970    # Li-Li
pair_coeff 3 4 0.306631 2.70000    # Li-Cl

pair_coeff 4 4 0.018385 4.69906    # Cl-Cl

bond_style  harmonic
bond_coeff 1 2000 0.9572           # Ow-Hw

angle_style harmonic
angle_coeff 1 200 104.52           # H-Ow-H

#dihedral_style none
#improper_style none

set type 1 charge -1.1128          # O
Setting atom values ...
  500 settings made for charge
set type 2 charge +0.5564          # OH
Setting atom values ...
  1000 settings made for charge
set type 3 charge +0.8500          # Li
Setting atom values ...
  54 settings made for charge
set type 4 charge -0.8500          # Cl
Setting atom values ...
  54 settings made for charge

#################### INITIALIZATION ####################
group wat type 1		# O water
500 atoms in group wat
group Li type 3			# Potasium ion
54 atoms in group Li
group Cl type 4			# Chlorine ion
54 atoms in group Cl

# neigbor lists
neighbor 2.0 bin
neigh_modify every 1 delay 0 check yes

# velocity-Verlet integrator
run_style verlet


# minimizing the system using the conjugate gradient method
min_style cg
min_modify dmax 0.05
minimize 1.0e-6 1.0e-6 1000 10000
PPPM initialization ...
  extracting TIP4P info from pair style
  using 12-bit tables for long-range coulomb (../kspace.cpp:342)
  G vector (1/distance) = 0.31127036
  grid = 25 25 25
  stencil order = 5
  estimated absolute RMS force accuracy = 0.0034097995
  estimated relative force accuracy = 1.026851e-05
  using double precision KISS FFT
  3d grid and FFT values/proc = 6400 1875
Generated 0 of 6 mixed pair_coeff terms from arithmetic mixing rule
Neighbor list info ...
  update every 1 steps, delay 0 steps, check yes
  max neighbors/atom: 2000, page size: 100000
  master list distance cutoff = 12.3092
  ghost atom cutoff = 12.3092
  binsize = 6.1546, bins = 5 5 5
  1 neighbor lists, perpetual/occasional/extra = 1 0 0
  (1) pair lj/cut/tip4p/long, perpetual
      attributes: half, newton on
      pair build: half/bin/newton
      stencil: half/bin/3d
      bin: standard
Per MPI rank memory allocation (min/avg/max) = 8.944 | 8.964 | 9.004 Mbytes
   Step          Temp          E_pair         E_mol          TotEng         Press     
         0   0              641.68376      3.1566538e-05  641.68379      52703.279    
      1000   0             -15695.723      94.172312     -15601.551     -5299.7128    
Loop time of 5.94458 on 12 procs for 1000 steps with 1608 atoms

92.0% CPU use with 12 MPI tasks x no OpenMP threads

Minimization stats:
  Stopping criterion = max iterations
  Energy initial, next-to-last, final = 
      641.683787181595  -15601.0710018281   -15601.550789311
  Force two-norm initial, final = 2112.4623 42.476166
  Force max component initial, final = 608.22136 9.3161348
  Final line search alpha, max atom move = 0.0026960674 0.025116928
  Iterations, force evaluations = 1000 1842

MPI task timing breakdown:
Section |  min time  |  avg time  |  max time  |%varavg| %total
---------------------------------------------------------------
Pair    | 3.2783     | 3.6643     | 4.0489     |  11.9 | 61.64
Bond    | 0.017019   | 0.018081   | 0.019174   |   0.5 |  0.30
Kspace  | 1.5183     | 1.8998     | 2.287      |  16.5 | 31.96
Neigh   | 0.030851   | 0.03093    | 0.031069   |   0.0 |  0.52
Comm    | 0.2254     | 0.23288    | 0.23845    |   0.7 |  3.92
Output  | 7.2958e-05 | 8.8219e-05 | 0.00023831 |   0.0 |  0.00
Modify  | 0          | 0          | 0          |   0.0 |  0.00
Other   |            | 0.09853    |            |       |  1.66

Nlocal:            134 ave         140 max         128 min
Histogram: 1 1 1 0 3 2 0 2 1 1
Nghost:        4116.92 ave        4183 max        4017 min
Histogram: 1 0 1 0 3 0 2 1 1 3
Neighs:        45853.6 ave       49043 max       42855 min
Histogram: 3 1 0 1 0 1 3 1 0 2

Total # of neighbors = 550243
Ave neighs/atom = 342.19092
Ave special neighs/atom = 1.8656716
Neighbor list builds = 16
Dangerous builds = 0
reset_timestep 0


# initializing velocities
velocity all create ${Temp} ${RandomSeed}
velocity all create 298.15 ${RandomSeed}
velocity all create 298.15 42

# rate of writing thermal properties to the log file
thermo_style custom step density temp press etotal
thermo_modify flush yes
thermo ${Nf}
thermo 100000

#################### 2) Initialize the NPT ensemble ####################
######### Go to the correct temperature now ant initiate that ##########
fix constrain all shake 1.0e-6 1000 0 b 1 a 1
       0 = # of size 2 clusters
       0 = # of size 3 clusters
       0 = # of size 4 clusters
     500 = # of frozen angles
  find clusters CPU = 0.001 seconds
fix integrate all npt temp ${Temp} ${Temp} 10.0 iso ${Pres} ${Pres} 100.0
fix integrate all npt temp 298.15 ${Temp} 10.0 iso ${Pres} ${Pres} 100.0
fix integrate all npt temp 298.15 298.15 10.0 iso ${Pres} ${Pres} 100.0
fix integrate all npt temp 298.15 298.15 10.0 iso 1 ${Pres} 100.0
fix integrate all npt temp 298.15 298.15 10.0 iso 1 1 100.0


# Initializing the whole system with very small timesteps in the NPT ensemble
timestep 0.001
run ${Ninptpre}
run 10000
PPPM initialization ...
  extracting TIP4P info from pair style
  using 12-bit tables for long-range coulomb (../kspace.cpp:342)
  G vector (1/distance) = 0.31127036
  grid = 25 25 25
  stencil order = 5
  estimated absolute RMS force accuracy = 0.0034097995
  estimated relative force accuracy = 1.026851e-05
  using double precision KISS FFT
  3d grid and FFT values/proc = 6400 1875
Generated 0 of 6 mixed pair_coeff terms from arithmetic mixing rule
Per MPI rank memory allocation (min/avg/max) = 8.694 | 8.714 | 8.754 Mbytes
   Step        Density          Temp          Press          TotEng    
         0   1.0219065      432.81576     -1311556.1     -14267.536    
     10000   1.0309603      173.12874      1359.6514     -14479.62     
Loop time of 43.1962 on 12 procs for 10000 steps with 1608 atoms

Performance: 0.020 ns/day, 1199.895 hours/ns, 231.502 timesteps/s
91.8% CPU use with 12 MPI tasks x no OpenMP threads

MPI task timing breakdown:
Section |  min time  |  avg time  |  max time  |%varavg| %total
---------------------------------------------------------------
Pair    | 21.624     | 24.221     | 27.064     |  31.0 | 56.07
Bond    | 0.0066551  | 0.0075865  | 0.0091691  |   0.8 |  0.02
Kspace  | 8.002      | 10.843     | 13.442     |  46.2 | 25.10
Neigh   | 0          | 0          | 0          |   0.0 |  0.00
Comm    | 1.1901     | 1.2285     | 1.2563     |   1.8 |  2.84
Output  | 6.1985e-05 | 8.4274e-05 | 0.00031409 |   0.0 |  0.00
Modify  | 4.6716     | 5.1247     | 6.7486     |  22.0 | 11.86
Other   |            | 1.771      |            |       |  4.10

Nlocal:            134 ave         139 max         128 min
Histogram: 2 0 1 0 2 3 0 0 1 3
Nghost:         4126.5 ave        4191 max        4024 min
Histogram: 1 0 1 0 2 1 2 1 2 2
Neighs:        45850.9 ave       48798 max       41816 min
Histogram: 1 0 2 1 1 0 1 4 0 2

Total # of neighbors = 550211
Ave neighs/atom = 342.17102
Ave special neighs/atom = 1.8656716
Neighbor list builds = 0
Dangerous builds = 0
timestep 0.01
run ${Ninptpre}
run 10000
PPPM initialization ...
  extracting TIP4P info from pair style
  using 12-bit tables for long-range coulomb (../kspace.cpp:342)
  G vector (1/distance) = 0.3114812
  grid = 25 25 25
  stencil order = 5
  estimated absolute RMS force accuracy = 0.0033801094
  estimated relative force accuracy = 1.0179099e-05
  using double precision KISS FFT
  3d grid and FFT values/proc = 6400 1875
Generated 0 of 6 mixed pair_coeff terms from arithmetic mixing rule
Per MPI rank memory allocation (min/avg/max) = 8.694 | 8.714 | 8.754 Mbytes
   Step        Density          Temp          Press          TotEng    
     10000   1.0309603      173.12874     -185299.38     -14479.62     
     20000   1.0239518      298.15262      89.567524     -13413.105    
Loop time of 43.1182 on 12 procs for 10000 steps with 1608 atoms

Performance: 0.200 ns/day, 119.773 hours/ns, 231.921 timesteps/s
91.9% CPU use with 12 MPI tasks x no OpenMP threads

MPI task timing breakdown:
Section |  min time  |  avg time  |  max time  |%varavg| %total
---------------------------------------------------------------
Pair    | 21.689     | 24.087     | 26.719     |  32.7 | 55.86
Bond    | 0.0067944  | 0.0076547  | 0.0091495  |   0.7 |  0.02
Kspace  | 8.1869     | 10.805     | 13.212     |  48.7 | 25.06
Neigh   | 0.0074088  | 0.0074382  | 0.0074697  |   0.0 |  0.02
Comm    | 1.2663     | 1.2986     | 1.3455     |   1.8 |  3.01
Output  | 6.2037e-05 | 8.3838e-05 | 0.00030704 |   0.0 |  0.00
Modify  | 4.6875     | 5.1389     | 6.7605     |  22.0 | 11.92
Other   |            | 1.774      |            |       |  4.11

Nlocal:            134 ave         142 max         128 min
Histogram: 4 1 1 0 0 1 1 2 0 2
Nghost:        4105.17 ave        4187 max        3992 min
Histogram: 1 1 0 2 0 2 2 0 2 2
Neighs:        45606.4 ave       50110 max       41518 min
Histogram: 3 0 0 1 2 2 0 3 0 1

Total # of neighbors = 547277
Ave neighs/atom = 340.34639
Ave special neighs/atom = 1.8656716
Neighbor list builds = 4
Dangerous builds = 0
timestep 0.1
run ${Ninptpre}
run 10000
PPPM initialization ...
  extracting TIP4P info from pair style
  using 12-bit tables for long-range coulomb (../kspace.cpp:342)
  G vector (1/distance) = 0.31131817
  grid = 25 25 25
  stencil order = 5
  estimated absolute RMS force accuracy = 0.0034030459
  estimated relative force accuracy = 1.0248172e-05
  using double precision KISS FFT
  3d grid and FFT values/proc = 6400 1875
Generated 0 of 6 mixed pair_coeff terms from arithmetic mixing rule
Per MPI rank memory allocation (min/avg/max) = 8.694 | 8.714 | 8.754 Mbytes
   Step        Density          Temp          Press          TotEng    
     20000   1.0239518      298.15262     -18953.267     -13413.105    
     30000   1.0757366      294.25727     -370.89339     -13630.725    
Loop time of 44.7919 on 12 procs for 10000 steps with 1608 atoms

Performance: 1.929 ns/day, 12.442 hours/ns, 223.255 timesteps/s
92.0% CPU use with 12 MPI tasks x no OpenMP threads

MPI task timing breakdown:
Section |  min time  |  avg time  |  max time  |%varavg| %total
---------------------------------------------------------------
Pair    | 23.373     | 25.618     | 28.254     |  28.4 | 57.19
Bond    | 0.0071479  | 0.0077574  | 0.0087293  |   0.5 |  0.02
Kspace  | 8.2006     | 10.834     | 13.087     |  43.6 | 24.19
Neigh   | 0.081796   | 0.081938   | 0.082187   |   0.0 |  0.18
Comm    | 1.2633     | 1.3062     | 1.3474     |   1.9 |  2.92
Output  | 6.3394e-05 | 8.3271e-05 | 0.00028871 |   0.0 |  0.00
Modify  | 4.7185     | 5.1674     | 6.791      |  21.9 | 11.54
Other   |            | 1.776      |            |       |  3.97

Nlocal:            134 ave         144 max         126 min
Histogram: 2 1 0 3 1 2 0 2 0 1
Nghost:        4212.42 ave        4266 max        4146 min
Histogram: 4 0 0 0 0 0 1 3 2 2
Neighs:        48245.3 ave       52532 max       44426 min
Histogram: 1 2 0 2 0 3 3 0 0 1

Total # of neighbors = 578944
Ave neighs/atom = 360.0398
Ave special neighs/atom = 1.8656716
Neighbor list builds = 41
Dangerous builds = 0
timestep 0.2
run ${Ninptpre}
run 10000
PPPM initialization ...
  extracting TIP4P info from pair style
  using 12-bit tables for long-range coulomb (../kspace.cpp:342)
  G vector (1/distance) = 0.31249425
  grid = 25 25 25
  stencil order = 5
  estimated absolute RMS force accuracy = 0.0032407143
  estimated relative force accuracy = 9.759315e-06
  using double precision KISS FFT
  3d grid and FFT values/proc = 6400 1875
Generated 0 of 6 mixed pair_coeff terms from arithmetic mixing rule
Per MPI rank memory allocation (min/avg/max) = 8.694 | 8.714 | 8.754 Mbytes
   Step        Density          Temp          Press          TotEng    
     30000   1.0757366      294.25727     -1526.9895     -13630.723    
     40000   1.1038515      296.20276      349.44742     -13772.084    
Loop time of 45.5554 on 12 procs for 10000 steps with 1608 atoms

Performance: 3.793 ns/day, 6.327 hours/ns, 219.513 timesteps/s
93.1% CPU use with 12 MPI tasks x no OpenMP threads

MPI task timing breakdown:
Section |  min time  |  avg time  |  max time  |%varavg| %total
---------------------------------------------------------------
Pair    | 24.609     | 26.874     | 27.835     |  17.7 | 58.99
Bond    | 0.0068824  | 0.0078247  | 0.0088523  |   0.6 |  0.02
Kspace  | 9.2434     | 10.206     | 12.465     |  28.7 | 22.40
Neigh   | 0.18375    | 0.18417    | 0.18454    |   0.1 |  0.40
Comm    | 1.2904     | 1.3221     | 1.3571     |   1.7 |  2.90
Output  | 6.3782e-05 | 8.5304e-05 | 0.00031018 |   0.0 |  0.00
Modify  | 4.7287     | 5.1849     | 6.8135     |  22.0 | 11.38
Other   |            | 1.776      |            |       |  3.90

Nlocal:            134 ave         143 max         122 min
Histogram: 1 2 0 0 0 1 4 2 1 1
Nghost:        4293.08 ave        4348 max        4242 min
Histogram: 1 1 1 2 1 2 2 0 0 2
Neighs:          49356 ave       55608 max       45826 min
Histogram: 1 4 2 0 1 2 0 1 0 1

Total # of neighbors = 592272
Ave neighs/atom = 368.32836
Ave special neighs/atom = 1.8656716
Neighbor list builds = 89
Dangerous builds = 0
timestep 0.5
run ${Ninptpre}
run 10000
PPPM initialization ...
  extracting TIP4P info from pair style
  using 12-bit tables for long-range coulomb (../kspace.cpp:342)
  G vector (1/distance) = 0.31018541
  grid = 24 24 24
  stencil order = 5
  estimated absolute RMS force accuracy = 0.0037917529
  estimated relative force accuracy = 1.1418751e-05
  using double precision KISS FFT
  3d grid and FFT values/proc = 5415 1152
Generated 0 of 6 mixed pair_coeff terms from arithmetic mixing rule
Per MPI rank memory allocation (min/avg/max) = 8.66 | 8.665 | 8.669 Mbytes
   Step        Density          Temp          Press          TotEng    
     40000   1.1038515      296.20276     -1297.8511     -13772.088    
     50000   1.1110493      283.71543      474.91831     -13858.34     
Loop time of 43.8515 on 12 procs for 10000 steps with 1608 atoms

Performance: 9.851 ns/day, 2.436 hours/ns, 228.042 timesteps/s
95.0% CPU use with 12 MPI tasks x no OpenMP threads

MPI task timing breakdown:
Section |  min time  |  avg time  |  max time  |%varavg| %total
---------------------------------------------------------------
Pair    | 26         | 27.343     | 28.612     |  16.1 | 62.35
Bond    | 0.0067358  | 0.0078201  | 0.0086922  |   0.6 |  0.02
Kspace  | 8.4383     | 9.7053     | 11.033     |  26.9 | 22.13
Neigh   | 0.44052    | 0.44105    | 0.4417     |   0.1 |  1.01
Comm    | 1.3137     | 1.3339     | 1.3626     |   1.3 |  3.04
Output  | 6.2189e-05 | 8.1221e-05 | 0.00027811 |   0.0 |  0.00
Modify  | 4.5619     | 4.7933     | 4.8735     |   3.3 | 10.93
Other   |            | 0.2276     |            |       |  0.52

Nlocal:            134 ave         142 max         127 min
Histogram: 2 0 1 1 2 3 1 0 0 2
Nghost:        4270.17 ave        4312 max        4234 min
Histogram: 2 0 1 1 2 2 3 0 0 1
Neighs:        49632.9 ave       54861 max       45854 min
Histogram: 2 1 2 1 1 1 2 1 0 1

Total # of neighbors = 595595
Ave neighs/atom = 370.3949
Ave special neighs/atom = 1.8656716
Neighbor list builds = 213
Dangerous builds = 0
reset_timestep 0

# continuing the initialization with the final value of timestep
unfix integrate
fix integrate all npt temp ${Temp} ${Temp} 100.0 iso ${Pres} ${Pres} 1000.0
fix integrate all npt temp 298.15 ${Temp} 100.0 iso ${Pres} ${Pres} 1000.0
fix integrate all npt temp 298.15 298.15 100.0 iso ${Pres} ${Pres} 1000.0
fix integrate all npt temp 298.15 298.15 100.0 iso 1 ${Pres} 1000.0
fix integrate all npt temp 298.15 298.15 100.0 iso 1 1 1000.0

timestep ${tstep}
timestep 1


run ${Ninpt}
run 5000000
PPPM initialization ...
  extracting TIP4P info from pair style
  using 12-bit tables for long-range coulomb (../kspace.cpp:342)
  G vector (1/distance) = 0.31034175
  grid = 24 24 24
  stencil order = 5
  estimated absolute RMS force accuracy = 0.0037673501
  estimated relative force accuracy = 1.1345263e-05
  using double precision KISS FFT
  3d grid and FFT values/proc = 5415 1152
Generated 0 of 6 mixed pair_coeff terms from arithmetic mixing rule
Per MPI rank memory allocation (min/avg/max) = 8.66 | 8.666 | 8.669 Mbytes
   Step        Density          Temp          Press          TotEng    
         0   1.1110493      283.71543      801.42466     -13858.34     
    100000   1.1170227      301.37029      317.40648     -13947.942    
    200000   1.1203313      305.78624      152.05358     -13849.097    
    300000   1.1048473      312.46603      1017.5621     -13798.483    
    400000   1.1143227      303.44044     -1207.6989     -13962.343    
    500000   1.1361842      296.85846      735.08573     -14006.903    
    600000   1.1172328      312.82921      1001.3096     -13885.868    
    700000   1.1226438      290.27872      496.62232     -14060.878    
    800000   1.1145531      295.60994     -185.97015     -13963.726    
    900000   1.1043096      301.03829     -897.25154     -13964.331    
   1000000   1.1082857      297.76811     -1002.9064     -13905.428    
   1100000   1.120847       288.73844      476.37055     -13910.26     
   1200000   1.1019875      299.03905     -1519.0996     -13970.391    
   1300000   1.1142494      295.6391      -191.55033     -13902.944    
   1400000   1.1079395      296.88081      418.58543     -13889.69     
   1500000   1.1062152      298.8319      -770.96295     -13904.319    
   1600000   1.1084433      299.00978      138.02828     -13929.35     
   1700000   1.1424503      306.82823      405.53265     -13879.092    
   1800000   1.1135533      293.21761      296.81098     -13937.119    
   1900000   1.1152923      298.16008     -93.379875     -13889.84     
   2000000   1.1145532      298.669        285.69059     -14007.714    
   2100000   1.1207834      299.07536     -559.63628     -13914.283    
   2200000   1.1036731      293.43453     -395.16494     -13953.748    
   2300000   1.096371       284.19961      284.03393     -13949.951    
   2400000   1.1129383      297.10136     -94.220752     -13978.338    
   2500000   1.1042865      302.81339     -1324.7416     -13872.564    
   2600000   1.1036807      284.84396     -698.65154     -13925.529    
   2700000   1.1036559      290.99679     -101.31152     -13899.453    
   2800000   1.1085159      316.04714     -466.04151     -13912.438    
   2900000   1.1332511      306.09944      410.20305     -13848.542    
   3000000   1.1200753      303.24345      1523.8992     -13903.078    
   3100000   1.1194986      289.2164      -398.3244      -13924.146    
   3200000   1.1173859      290.48441     -251.50837     -13935.517    
   3300000   1.1194883      305.14841      40.828177     -13924.483    
   3400000   1.1109186      298.07547     -1603.1811     -13881.662    
   3500000   1.1132638      299.12077      643.68807     -13906.098    
   3600000   1.1340732      306.95267      1628.8178     -13886.732    
   3700000   1.0915522      285.88103     -1797.5126     -13934.254    
   3800000   1.1319033      307.41641      754.20065     -13890.15     
   3900000   1.1036395      293.8984      -496.95741     -13991.984    
   4000000   1.1057061      293.35367      285.09502     -13925.029    
   4100000   1.1164471      292.02556     -460.82884     -13937.789    
   4200000   1.1235483      298.71998     -234.80298     -13987.595    
   4300000   1.1069938      299.99097      200.47071     -13881.266    
   4400000   1.1220578      306.94045      1282.8151     -13846.086    
   4500000   1.1162488      291.59106      1021.4492     -13913.798    
   4600000   1.1196667      306.89965     -263.10289     -13850.865    
   4700000   1.1253685      313.93816      428.24126     -13838.753    
   4800000   1.1161551      301.61148     -939.85597     -13944.147    
   4900000   1.1061898      292.14449     -516.39875     -13955.471    
   5000000   1.1151293      294.98671     -142.78044     -13970.468    
Loop time of 22723.9 on 12 procs for 5000000 steps with 1608 atoms

Performance: 19.011 ns/day, 1.262 hours/ns, 220.033 timesteps/s
94.1% CPU use with 12 MPI tasks x no OpenMP threads

MPI task timing breakdown:
Section |  min time  |  avg time  |  max time  |%varavg| %total
---------------------------------------------------------------
Pair    | 12780      | 13838      | 14549      | 531.4 | 60.90
Bond    | 3.4681     | 3.8341     | 4.214      |  12.4 |  0.02
Kspace  | 4533.1     | 5242.6     | 6296.6     | 864.3 | 23.07
Neigh   | 429.8      | 429.98     | 430.21     |   0.5 |  1.89
Comm    | 676.69     | 687.5      | 698.57     |  24.7 |  3.03
Output  | 0.0032214  | 0.0043257  | 0.016018   |   5.4 |  0.00
Modify  | 2293.4     | 2407.2     | 2443.8     |  72.7 | 10.59
Other   |            | 114.9      |            |       |  0.51

Nlocal:            134 ave         146 max         127 min
Histogram: 3 1 1 1 2 3 0 0 0 1
Nghost:        4310.58 ave        4355 max        4271 min
Histogram: 2 1 2 1 0 1 2 0 2 1
Neighs:        49948.2 ave       54668 max       45558 min
Histogram: 2 2 0 2 0 2 0 0 3 1

Total # of neighbors = 599378
Ave neighs/atom = 372.74751
Ave special neighs/atom = 1.8656716
Neighbor list builds = 203877
Dangerous builds = 0
reset_timestep 0


#################### 3) Obtaining average volume in NPT ######################
# Creating restart files
restart ${Nf} 1.restart 2.restart
restart 100000 1.restart 2.restart

# Getting the average volume of the system
variable Volume equal vol
fix VoluAve all ave/time 1 ${Npnpt} ${Npnpt} v_Volume file volume.dat
fix VoluAve all ave/time 1 5000000 ${Npnpt} v_Volume file volume.dat
fix VoluAve all ave/time 1 5000000 5000000 v_Volume file volume.dat

variable Dens equal density
fix DensAve all ave/time 1 ${NBR} ${NBR} v_Dens file density.dat
fix DensAve all ave/time 1 50000 ${NBR} v_Dens file density.dat
fix DensAve all ave/time 1 50000 50000 v_Dens file density.dat

compute T1 all temp
fix TempAve1 all ave/time 1 ${NBR} ${NBR} c_T1 file temperatureNPT.dat
fix TempAve1 all ave/time 1 50000 ${NBR} c_T1 file temperatureNPT.dat
fix TempAve1 all ave/time 1 50000 50000 c_T1 file temperatureNPT.dat

compute P1 all pressure T1
fix PressAve1 all ave/time 1 ${NBR} ${NBR} c_P1 file pressureNPT.dat
fix PressAve1 all ave/time 1 50000 ${NBR} c_P1 file pressureNPT.dat
fix PressAve1 all ave/time 1 50000 50000 c_P1 file pressureNPT.dat

run ${Npnpt}
run 5000000
PPPM initialization ...
  extracting TIP4P info from pair style
  using 12-bit tables for long-range coulomb (../kspace.cpp:342)
  G vector (1/distance) = 0.31042987
  grid = 24 24 24
  stencil order = 5
  estimated absolute RMS force accuracy = 0.0037536591
  estimated relative force accuracy = 1.1304033e-05
  using double precision KISS FFT
  3d grid and FFT values/proc = 5415 1152
Generated 0 of 6 mixed pair_coeff terms from arithmetic mixing rule
Per MPI rank memory allocation (min/avg/max) = 8.661 | 8.666 | 8.67 Mbytes
   Step        Density          Temp          Press          TotEng    
         0   1.1151293      294.98671     -244.77563     -13970.468    
    100000   1.118049       294.28225     -165.79047     -13911.83     
    200000   1.1268979      291.87908      220.86652     -14007.283    
    300000   1.1072831      307.29281     -1543.2588     -13884.828    
    400000   1.1181751      299.27622      468.86331     -13887.338    
    500000   1.0984453      290.37735     -206.40483     -13906.555    
    600000   1.1229515      293.10601      962.44433     -13987.591    
    700000   1.1011563      291.46415     -571.47975     -13901.231    
    800000   1.1137888      302.75876     -531.05327     -13960.129    
    900000   1.1163336      284.88295      509.45882     -14000.977    
   1000000   1.1071048      295.97988     -335.83247     -13875.462    
   1100000   1.1234233      301.26782     -18.409838     -13934.037    
   1200000   1.1146258      306.70004     -209.48087     -13906.211    
   1300000   1.1231647      308.23105      829.11275     -13891.8      
   1400000   1.1076429      302.86608      208.47525     -13871.594    
   1500000   1.1102879      302.09347     -228.08757     -13866.086    
   1600000   1.1154504      294.99426     -35.626099     -13941.108    
   1700000   1.116412       294.42123      82.461395     -13964.928    
   1800000   1.1018403      299.51988      202.82207     -13955.829    
   1900000   1.1130641      295.97912      783.35659     -13915.043    
   2000000   1.1162485      303.64194      1092.5177     -13853.623    
   2100000   1.1151624      289.57531      704.91535     -13947.442    
   2200000   1.1089727      294.6139       73.921223     -13945.551    
   2300000   1.1033983      300.67818      1144.2138     -13874.377    
   2400000   1.1207398      300.84186     -1230.4625     -13968.227    
   2500000   1.1243198      286.84544     -802.05424     -13973.778    
   2600000   1.0926496      291.58059      415.01255     -13960.127    
   2700000   1.1206005      288.46327     -1225.0495     -13957.832    
   2800000   1.1201611      301.50729      99.727757     -13898.037    
   2900000   1.1137655      294.47774      666.19415     -13893.152    
   3000000   1.1377357      304.29843      870.42992     -13888.916    
   3100000   1.1130298      295.01315      1216.4135     -13899.697    
   3200000   1.1151538      305.26552      977.10257     -13856.104    
   3300000   1.1174149      298.00367      828.69555     -13940.016    
   3400000   1.123497       311.78794      939.33613     -13925.927    
   3500000   1.1318884      283.12501      543.7166      -14015.885    
   3600000   1.1102205      295.68445      948.51321     -13947.131    
   3700000   1.1170621      302.93994      256.90114     -13936.722    
   3800000   1.1171693      287.27889     -1215.8165     -13984.153    
   3900000   1.1141785      303.17012      176.10742     -13874.967    
   4000000   1.1099241      303.94841     -901.18806     -13902.414    
   4100000   1.1232078      299.09402      1231.1374     -13895.763    
   4200000   1.1029007      281.52477     -439.63762     -13939.944    
   4300000   1.1182735      294.64148      90.151111     -13942.06     
   4400000   1.1178539      290.21657      179.05081     -13940.451    
   4500000   1.118146       303.41719      984.19614     -13828.926    
   4600000   1.1130963      300.21839      56.419391     -13860.283    
   4700000   1.1148828      298.90112     -750.36126     -13971.88     
   4800000   1.1198025      313.9667      -525.9041      -13916.988    
   4900000   1.0965714      295.49276     -523.39787     -13912.018    
   5000000   1.1178654      306.25247     -460.48228     -13897.638    
Loop time of 22924.2 on 12 procs for 5000000 steps with 1608 atoms

Performance: 18.845 ns/day, 1.274 hours/ns, 218.111 timesteps/s
94.0% CPU use with 12 MPI tasks x no OpenMP threads

MPI task timing breakdown:
Section |  min time  |  avg time  |  max time  |%varavg| %total
---------------------------------------------------------------
Pair    | 12768      | 13828      | 14740      | 567.6 | 60.32
Bond    | 3.7799     | 4.0146     | 4.5502     |  10.9 |  0.02
Kspace  | 4344.7     | 5255.7     | 6322.2     | 922.1 | 22.93
Neigh   | 430.5      | 430.69     | 430.87     |   0.5 |  1.88
Comm    | 677.95     | 689.24     | 700.59     |  25.3 |  3.01
Output  | 0.21758    | 0.21821    | 0.22454    |   0.4 |  0.00
Modify  | 2487.5     | 2600.5     | 2636.9     |  69.5 | 11.34
Other   |            | 115.4      |            |       |  0.50

Nlocal:            134 ave         152 max         120 min
Histogram: 1 0 2 3 2 1 2 0 0 1
Nghost:        4306.42 ave        4374 max        4246 min
Histogram: 3 0 1 0 2 2 2 0 1 1
Neighs:        50098.3 ave       58137 max       43122 min
Histogram: 1 0 2 2 2 3 0 1 0 1

Total # of neighbors = 601180
Ave neighs/atom = 373.86816
Ave special neighs/atom = 1.8656716
Neighbor list builds = 203998
Dangerous builds = 0

#################### 4) Initializing the NVT ensemble ####################
# scaling the size of the system to the average volume
variable sidesize equal (f_VoluAve^(1.0/3.0))    # get the volume
variable xlow equal xlo
variable ylow equal ylo
variable zlow equal zlo
variable xhig equal (xlo+${sidesize})
variable xhig equal (xlo+25.6287141640118)
variable yhig equal (ylo+${sidesize})
variable yhig equal (ylo+25.6287141640118)
variable zhig equal (zlo+${sidesize})
variable zhig equal (zlo+25.6287141640118)
change_box all x final ${xlow} ${xhig} y final ${ylow} ${yhig} z final ${zlow} ${zhig}
change_box all x final 0.388753658437844 ${xhig} y final ${ylow} ${yhig} z final ${zlow} ${zhig}
change_box all x final 0.388753658437844 26.0174678224496 y final ${ylow} ${yhig} z final ${zlow} ${zhig}
change_box all x final 0.388753658437844 26.0174678224496 y final 0.388753658437844 ${yhig} z final ${zlow} ${zhig}
change_box all x final 0.388753658437844 26.0174678224496 y final 0.388753658437844 26.0174678224496 z final ${zlow} ${zhig}
change_box all x final 0.388753658437844 26.0174678224496 y final 0.388753658437844 26.0174678224496 z final 0.388753658437844 ${zhig}
change_box all x final 0.388753658437844 26.0174678224496 y final 0.388753658437844 26.0174678224496 z final 0.388753658437844 26.0174678224496
Changing box ...
  orthogonal box = (0.38875366 0.38875366 0.38875366) to (26.017468 25.990755 25.990755)
  orthogonal box = (0.38875366 0.38875366 0.38875366) to (26.017468 26.017468 25.990755)
  orthogonal box = (0.38875366 0.38875366 0.38875366) to (26.017468 26.017468 26.017468)
unfix DensAve
unfix VoluAve
unfix TempAve1
unfix PressAve1

# changing the ensemble to NVT
unfix integrate
fix integrate all nvt temp ${Temp} ${Temp} 10.0
fix integrate all nvt temp 298.15 ${Temp} 10.0
fix integrate all nvt temp 298.15 298.15 10.0

timestep 0.001
run ${Ninvtpre}
run 10000
PPPM initialization ...
  extracting TIP4P info from pair style
  using 12-bit tables for long-range coulomb (../kspace.cpp:342)
  G vector (1/distance) = 0.31041357
  grid = 24 24 24
  stencil order = 5
  estimated absolute RMS force accuracy = 0.0037561872
  estimated relative force accuracy = 1.1311646e-05
  using double precision KISS FFT
  3d grid and FFT values/proc = 5415 1152
Generated 0 of 6 mixed pair_coeff terms from arithmetic mixing rule
Per MPI rank memory allocation (min/avg/max) = 8.661 | 8.666 | 8.67 Mbytes
   Step        Density          Temp          Press          TotEng    
   5000000   1.1143736      306.25247     -142042.94     -13918.312    
   5010000   1.1143736      296.18134     -1100.7189     -13920.331    
Loop time of 31.8606 on 12 procs for 10000 steps with 1608 atoms

Performance: 0.027 ns/day, 885.016 hours/ns, 313.868 timesteps/s
91.6% CPU use with 12 MPI tasks x no OpenMP threads

MPI task timing breakdown:
Section |  min time  |  avg time  |  max time  |%varavg| %total
---------------------------------------------------------------
Pair    | 16.243     | 18.834     | 22.291     |  33.2 | 59.11
Bond    | 0.0021546  | 0.0038429  | 0.0044527  |   1.2 |  0.01
Kspace  | 7.1605     | 10.52      | 13.037     |  43.3 | 33.02
Neigh   | 0          | 0          | 0          |   0.0 |  0.00
Comm    | 1.2005     | 1.2846     | 1.3564     |   3.7 |  4.03
Output  | 6.3419e-05 | 8.3097e-05 | 0.00027779 |   0.0 |  0.00
Modify  | 1.0342     | 1.0469     | 1.061      |   0.8 |  3.29
Other   |            | 0.1706     |            |       |  0.54

Nlocal:            134 ave         152 max         119 min
Histogram: 1 0 2 3 2 1 2 0 0 1
Nghost:        4297.33 ave        4379 max        4226 min
Histogram: 3 0 0 1 1 3 2 0 1 1
Neighs:        49944.8 ave       58111 max       42554 min
Histogram: 1 0 1 3 2 3 0 1 0 1

Total # of neighbors = 599338
Ave neighs/atom = 372.72264
Ave special neighs/atom = 1.8656716
Neighbor list builds = 0
Dangerous builds = 0
timestep 0.01
run ${Ninvtpre}
run 10000
PPPM initialization ...
  extracting TIP4P info from pair style
  using 12-bit tables for long-range coulomb (../kspace.cpp:342)
  G vector (1/distance) = 0.31041357
  grid = 24 24 24
  stencil order = 5
  estimated absolute RMS force accuracy = 0.0037561872
  estimated relative force accuracy = 1.1311646e-05
  using double precision KISS FFT
  3d grid and FFT values/proc = 5415 1152
Generated 0 of 6 mixed pair_coeff terms from arithmetic mixing rule
Per MPI rank memory allocation (min/avg/max) = 8.661 | 8.666 | 8.67 Mbytes
   Step        Density          Temp          Press          TotEng    
   5010000   1.1143736      296.18134     -1100.7145     -13920.331    
   5020000   1.1143736      305.83674      614.74209     -13868.828    
Loop time of 31.8802 on 12 procs for 10000 steps with 1608 atoms

Performance: 0.271 ns/day, 88.556 hours/ns, 313.674 timesteps/s
91.7% CPU use with 12 MPI tasks x no OpenMP threads

MPI task timing breakdown:
Section |  min time  |  avg time  |  max time  |%varavg| %total
---------------------------------------------------------------
Pair    | 16.307     | 18.848     | 22.302     |  31.7 | 59.12
Bond    | 0.0023055  | 0.0039931  | 0.0046064  |   1.2 |  0.01
Kspace  | 7.1112     | 10.446     | 12.935     |  41.3 | 32.77
Neigh   | 0.0084544  | 0.0084679  | 0.0084841  |   0.0 |  0.03
Comm    | 1.2291     | 1.3297     | 1.3887     |   4.2 |  4.17
Output  | 6.2478e-05 | 8.2313e-05 | 0.00029045 |   0.0 |  0.00
Modify  | 1.0525     | 1.0723     | 1.0955     |   1.5 |  3.36
Other   |            | 0.1709     |            |       |  0.54

Nlocal:            134 ave         154 max         120 min
Histogram: 1 1 3 1 2 1 2 0 0 1
Nghost:         4312.5 ave        4370 max        4240 min
Histogram: 1 2 0 1 0 1 2 1 3 1
Neighs:        49935.5 ave       58031 max       42226 min
Histogram: 1 0 2 1 1 4 1 1 0 1

Total # of neighbors = 599226
Ave neighs/atom = 372.65299
Ave special neighs/atom = 1.8656716
Neighbor list builds = 4
Dangerous builds = 0
timestep 0.1
run ${Ninvtpre}
run 10000
PPPM initialization ...
  extracting TIP4P info from pair style
  using 12-bit tables for long-range coulomb (../kspace.cpp:342)
  G vector (1/distance) = 0.31041357
  grid = 24 24 24
  stencil order = 5
  estimated absolute RMS force accuracy = 0.0037561872
  estimated relative force accuracy = 1.1311646e-05
  using double precision KISS FFT
  3d grid and FFT values/proc = 5415 1152
Generated 0 of 6 mixed pair_coeff terms from arithmetic mixing rule
Per MPI rank memory allocation (min/avg/max) = 8.661 | 8.666 | 8.67 Mbytes
   Step        Density          Temp          Press          TotEng    
   5020000   1.1143736      305.83674      614.97051     -13868.828    
   5030000   1.1143736      294.50483      177.79448     -13954.939    
Loop time of 31.3894 on 12 procs for 10000 steps with 1608 atoms

Performance: 2.753 ns/day, 8.719 hours/ns, 318.579 timesteps/s
92.7% CPU use with 12 MPI tasks x no OpenMP threads

MPI task timing breakdown:
Section |  min time  |  avg time  |  max time  |%varavg| %total
---------------------------------------------------------------
Pair    | 17.391     | 18.94      | 21.676     |  24.0 | 60.34
Bond    | 0.0021097  | 0.0039005  | 0.0047204  |   1.2 |  0.01
Kspace  | 7.1511     | 9.814      | 11.349     |  32.7 | 31.27
Neigh   | 0.085524   | 0.085652   | 0.085743   |   0.0 |  0.27
Comm    | 1.2451     | 1.3082     | 1.3463     |   2.8 |  4.17
Output  | 6.319e-05  | 8.2769e-05 | 0.00028259 |   0.0 |  0.00
Modify  | 1.0486     | 1.0641     | 1.0805     |   0.9 |  3.39
Other   |            | 0.1729     |            |       |  0.55

Nlocal:            134 ave         144 max         123 min
Histogram: 1 0 2 0 2 2 2 2 0 1
Nghost:        4318.83 ave        4407 max        4239 min
Histogram: 2 0 1 3 0 2 1 1 0 2
Neighs:        49954.9 ave       55958 max       46653 min
Histogram: 2 1 3 2 1 1 1 0 0 1

Total # of neighbors = 599459
Ave neighs/atom = 372.79789
Ave special neighs/atom = 1.8656716
Neighbor list builds = 41
Dangerous builds = 0
timestep 0.2
run ${Ninvtpre}
run 10000
PPPM initialization ...
  extracting TIP4P info from pair style
  using 12-bit tables for long-range coulomb (../kspace.cpp:342)
  G vector (1/distance) = 0.31041357
  grid = 24 24 24
  stencil order = 5
  estimated absolute RMS force accuracy = 0.0037561872
  estimated relative force accuracy = 1.1311646e-05
  using double precision KISS FFT
  3d grid and FFT values/proc = 5415 1152
Generated 0 of 6 mixed pair_coeff terms from arithmetic mixing rule
Per MPI rank memory allocation (min/avg/max) = 8.661 | 8.666 | 8.67 Mbytes
   Step        Density          Temp          Press          TotEng    
   5030000   1.1143736      294.50483      178.1071      -13954.939    
   5040000   1.1143736      291.32665     -575.74163     -13913.009    
Loop time of 31.8671 on 12 procs for 10000 steps with 1608 atoms

Performance: 5.423 ns/day, 4.426 hours/ns, 313.803 timesteps/s
92.5% CPU use with 12 MPI tasks x no OpenMP threads

MPI task timing breakdown:
Section |  min time  |  avg time  |  max time  |%varavg| %total
---------------------------------------------------------------
Pair    | 17.664     | 19.054     | 22.131     |  27.0 | 59.79
Bond    | 0.0022897  | 0.0039324  | 0.0046943  |   1.2 |  0.01
Kspace  | 7.0802     | 10.066     | 11.436     |  36.0 | 31.59
Neigh   | 0.17521    | 0.1754     | 0.17556    |   0.0 |  0.55
Comm    | 1.2573     | 1.3325     | 1.3785     |   3.1 |  4.18
Output  | 6.4035e-05 | 8.3745e-05 | 0.00028375 |   0.0 |  0.00
Modify  | 1.0438     | 1.0622     | 1.0816     |   1.2 |  3.33
Other   |            | 0.1733     |            |       |  0.54

Nlocal:            134 ave         144 max         124 min
Histogram: 2 0 0 2 1 2 2 1 1 1
Nghost:        4315.83 ave        4392 max        4244 min
Histogram: 1 2 0 2 0 1 4 1 0 1
Neighs:        49927.2 ave       53633 max       47041 min
Histogram: 3 2 0 1 0 1 3 0 0 2

Total # of neighbors = 599126
Ave neighs/atom = 372.5908
Ave special neighs/atom = 1.8656716
Neighbor list builds = 83
Dangerous builds = 0
timestep 0.5
run ${Ninvtpre}
run 10000
PPPM initialization ...
  extracting TIP4P info from pair style
  using 12-bit tables for long-range coulomb (../kspace.cpp:342)
  G vector (1/distance) = 0.31041357
  grid = 24 24 24
  stencil order = 5
  estimated absolute RMS force accuracy = 0.0037561872
  estimated relative force accuracy = 1.1311646e-05
  using double precision KISS FFT
  3d grid and FFT values/proc = 5415 1152
Generated 0 of 6 mixed pair_coeff terms from arithmetic mixing rule
Per MPI rank memory allocation (min/avg/max) = 8.661 | 8.666 | 8.67 Mbytes
   Step        Density          Temp          Press          TotEng    
   5040000   1.1143736      291.32665     -576.84803     -13913.009    
   5050000   1.1143736      296.96074     -126.73048     -13935.34     
Loop time of 31.1265 on 12 procs for 10000 steps with 1608 atoms

Performance: 13.879 ns/day, 1.729 hours/ns, 321.269 timesteps/s
94.6% CPU use with 12 MPI tasks x no OpenMP threads

MPI task timing breakdown:
Section |  min time  |  avg time  |  max time  |%varavg| %total
---------------------------------------------------------------
Pair    | 18.426     | 19.265     | 20.325     |  14.4 | 61.89
Bond    | 0.0020353  | 0.0039576  | 0.0047573  |   1.3 |  0.01
Kspace  | 7.7991     | 8.8408     | 9.6894     |  21.1 | 28.40
Neigh   | 0.4235     | 0.42383    | 0.42416    |   0.0 |  1.36
Comm    | 1.2922     | 1.343      | 1.3849     |   2.2 |  4.31
Output  | 6.4705e-05 | 8.4233e-05 | 0.00028331 |   0.0 |  0.00
Modify  | 1.07       | 1.0772     | 1.0893     |   0.5 |  3.46
Other   |            | 0.1727     |            |       |  0.55

Nlocal:            134 ave         141 max         126 min
Histogram: 1 0 1 0 3 1 4 0 1 1
Nghost:           4314 ave        4350 max        4250 min
Histogram: 1 0 1 0 1 2 1 1 2 3
Neighs:        49918.6 ave       54855 max       45887 min
Histogram: 1 0 1 5 2 0 2 0 0 1

Total # of neighbors = 599023
Ave neighs/atom = 372.52674
Ave special neighs/atom = 1.8656716
Neighbor list builds = 204
Dangerous builds = 0

unfix integrate
fix integrate all nvt temp ${Temp} ${Temp} 100.0
fix integrate all nvt temp 298.15 ${Temp} 100.0
fix integrate all nvt temp 298.15 298.15 100.0
# continuing the initialization with the final value of timestep
timestep ${tstep}
timestep 1

run ${Ninvt}
run 2500000
PPPM initialization ...
  extracting TIP4P info from pair style
  using 12-bit tables for long-range coulomb (../kspace.cpp:342)
  G vector (1/distance) = 0.31041357
  grid = 24 24 24
  stencil order = 5
  estimated absolute RMS force accuracy = 0.0037561872
  estimated relative force accuracy = 1.1311646e-05
  using double precision KISS FFT
  3d grid and FFT values/proc = 5415 1152
Generated 0 of 6 mixed pair_coeff terms from arithmetic mixing rule
Per MPI rank memory allocation (min/avg/max) = 8.661 | 8.666 | 8.67 Mbytes
   Step        Density          Temp          Press          TotEng    
   5050000   1.1143736      296.96074     -128.85442     -13935.34     
   5100000   1.1143736      302.82079      390.27039     -13896.912    
   5200000   1.1143736      301.70828     -527.16949     -13927.775    
   5300000   1.1143736      300.58339      133.41404     -13925.555    
   5400000   1.1143736      300.32518      535.71162     -13906.931    
   5500000   1.1143736      309.4337       899.4009      -13891.835    
   5600000   1.1143736      310.61647     -717.76359     -13880.329    
   5700000   1.1143736      306.9908      -77.116011     -13869.254    
   5800000   1.1143736      301.96726      217.40844     -13861.505    
   5900000   1.1143736      284.75325     -1174.1363     -14021.646    
   6000000   1.1143736      300.82883     -1009.6123     -13894.99     
   6100000   1.1143736      285.61301     -596.39231     -13953.171    
   6200000   1.1143736      303.75188      1163.2278     -13884.337    
   6300000   1.1143736      291.10718     -585.47239     -13930.023    
   6400000   1.1143736      291.84729     -135.7067      -13971.722    
   6500000   1.1143736      308.52317      146.98284     -13900.274    
   6600000   1.1143736      302.76764      504.31772     -13851.576    
   6700000   1.1143736      298.41135     -782.73425     -13937.088    
   6800000   1.1143736      294.28407      883.68097     -13958.367    
   6900000   1.1143736      297.06267     -285.81353     -13914.935    
   7000000   1.1143736      305.62721      956.39484     -13892.803    
   7100000   1.1143736      294.16992     -549.79913     -13899.361    
   7200000   1.1143736      291.9153       138.94561     -13901.494    
   7300000   1.1143736      293.68705     -461.75472     -13918.437    
   7400000   1.1143736      304.87549     -120.85854     -13898.929    
   7500000   1.1143736      291.07651     -50.410389     -13984.622    
   7550000   1.1143736      305.53455      259.60553     -13903.5      
Loop time of 7992.78 on 12 procs for 2500000 steps with 1608 atoms

Performance: 27.024 ns/day, 0.888 hours/ns, 312.782 timesteps/s
94.1% CPU use with 12 MPI tasks x no OpenMP threads

MPI task timing breakdown:
Section |  min time  |  avg time  |  max time  |%varavg| %total
---------------------------------------------------------------
Pair    | 4531.2     | 4850.6     | 5070.8     | 265.5 | 60.69
Bond    | 0.54426    | 1.0105     | 1.2732     |  21.0 |  0.01
Kspace  | 2043.5     | 2266       | 2583.2     | 390.0 | 28.35
Neigh   | 213.49     | 213.57     | 213.69     |   0.4 |  2.67
Comm    | 339.56     | 344.57     | 348.82     |  13.6 |  4.31
Output  | 0.11016    | 0.1105     | 0.11403    |   0.3 |  0.00
Modify  | 272.31     | 273.68     | 276.19     |   7.2 |  3.42
Other   |            | 43.18      |            |       |  0.54

Nlocal:            134 ave         144 max         127 min
Histogram: 1 4 1 0 2 0 1 1 1 1
Nghost:        4322.58 ave        4361 max        4285 min
Histogram: 2 1 2 1 1 0 0 0 3 2
Neighs:        49930.3 ave       52041 max       47077 min
Histogram: 1 0 1 2 1 0 2 3 1 1

Total # of neighbors = 599164
Ave neighs/atom = 372.61443
Ave special neighs/atom = 1.8656716
Neighbor list builds = 100910
Dangerous builds = 0

reset_timestep 0

#################### 2) Production in NVT ensemble #####################
# computing average total energy, pontential energy, temperature, and pressure over time
variable TotEn equal etotal
fix TEAve all ave/time ${Ne} ${Nr} ${Nf} v_TotEn file TotalE.dat
fix TEAve all ave/time 1 ${Nr} ${Nf} v_TotEn file TotalE.dat
fix TEAve all ave/time 1 100000 ${Nf} v_TotEn file TotalE.dat
fix TEAve all ave/time 1 100000 100000 v_TotEn file TotalE.dat

variable PotEn equal pe
fix PEAve all ave/time ${Ne} ${Nr} ${Nf} v_PotEn file PotenE.dat
fix PEAve all ave/time 1 ${Nr} ${Nf} v_PotEn file PotenE.dat
fix PEAve all ave/time 1 100000 ${Nf} v_PotEn file PotenE.dat
fix PEAve all ave/time 1 100000 100000 v_PotEn file PotenE.dat

compute T all temp
fix TempAve all ave/time ${Ne} ${Nr} ${Nf} c_T file temperature.dat
fix TempAve all ave/time 1 ${Nr} ${Nf} c_T file temperature.dat
fix TempAve all ave/time 1 100000 ${Nf} c_T file temperature.dat
fix TempAve all ave/time 1 100000 100000 c_T file temperature.dat

compute P all pressure T
fix PressAve all ave/time ${Ne} ${Nr} ${Nf} c_P file pressure.dat
fix PressAve all ave/time 1 ${Nr} ${Nf} c_P file pressure.dat
fix PressAve all ave/time 1 100000 ${Nf} c_P file pressure.dat
fix PressAve all ave/time 1 100000 100000 c_P file pressure.dat


# computing self-diffusion and Onsager coefficients using the OCTP plugin
compute positions all position
fix f1 all ordern diffusivity ${Ndiff} ${Nwrit} c_positions nb ${nb} nbe ${nbe}
fix f1 all ordern diffusivity 1000 ${Nwrit} c_positions nb ${nb} nbe ${nbe}
fix f1 all ordern diffusivity 1000 100000 c_positions nb ${nb} nbe ${nbe}
fix f1 all ordern diffusivity 1000 100000 c_positions nb 10 nbe ${nbe}
fix f1 all ordern diffusivity 1000 100000 c_positions nb 10 nbe 20


# computing shear and bulk viscosities  using the OCTP plugin
fix f2 all ordern viscosity ${Nvisc} ${Nwrit} c_P nb ${nb} nbe ${nbe}
fix f2 all ordern viscosity 5 ${Nwrit} c_P nb ${nb} nbe ${nbe}
fix f2 all ordern viscosity 5 100000 c_P nb ${nb} nbe ${nbe}
fix f2 all ordern viscosity 5 100000 c_P nb 10 nbe ${nbe}
fix f2 all ordern viscosity 5 100000 c_P nb 10 nbe 20


# computing thermal conductivity using the OCTP plugin
compute KE all ke/atom
compute PE all pe/atom
compute ST all stress/atom NULL virial
compute heatflux all heat/flux KE PE ST
fix f3 all ordern thermalconductivity ${Ncond} ${Nwrit} c_heatflux nb ${nb} nbe ${nbe}
fix f3 all ordern thermalconductivity 5 ${Nwrit} c_heatflux nb ${nb} nbe ${nbe}
fix f3 all ordern thermalconductivity 5 100000 c_heatflux nb ${nb} nbe ${nbe}
fix f3 all ordern thermalconductivity 5 100000 c_heatflux nb 10 nbe ${nbe}
fix f3 all ordern thermalconductivity 5 100000 c_heatflux nb 10 nbe 20


# computing the RDF for all group pairs
compute rdfs all rdf/ext Nbin ${binnum} Nwrite ${Nrdfw}
compute rdfs all rdf/ext Nbin 2000 Nwrite ${Nrdfw}
compute rdfs all rdf/ext Nbin 2000 Nwrite 1000
fix f4 all ave/time 1 1 ${Nrdfe} c_rdfs
fix f4 all ave/time 1 1 1000 c_rdfs

dump trjectory all xyz ${Nd} movie.xyz
dump trjectory all xyz 100000 movie.xyz
dump_modify trjectory element Ow H K Cl

run ${Nrun1}
run 250000

CITE-CITE-CITE-CITE-CITE-CITE-CITE-CITE-CITE-CITE-CITE-CITE-CITE

Your simulation uses code contributions which should be cited:

- fix ave/ordern command:

@Article{Jamali2019,
 author = {Jamali, Seyed Hossein and Wolf, Ludger and Becker, Tim M. and de Groen, Mariëtte and Ramdin, Mahinder and Hartkamp, Remco and Bardow, André and Vlugt, Thijs J. H. and Moultos, Othonas A.},
 title = {OCTP: A Tool for On-the-Fly Calculation of Transport Properties of Fluids with the Order-n Algorithm in LAMMPS},
 doi = {10.1021/acs.jcim.8b00939},
 journal = {J. Chem. Inf. Model.},
 year = {2019},
 volume = {59},
 pages = {1290-1294}
 }

CITE-CITE-CITE-CITE-CITE-CITE-CITE-CITE-CITE-CITE-CITE-CITE-CITE

PPPM initialization ...
  extracting TIP4P info from pair style
  using 12-bit tables for long-range coulomb (../kspace.cpp:342)
  G vector (1/distance) = 0.31041357
  grid = 24 24 24
  stencil order = 5
  estimated absolute RMS force accuracy = 0.0037561872
  estimated relative force accuracy = 1.1311646e-05
  using double precision KISS FFT
  3d grid and FFT values/proc = 5415 1152
Generated 0 of 6 mixed pair_coeff terms from arithmetic mixing rule
Per MPI rank memory allocation (min/avg/max) = 14.4 | 14.41 | 14.41 Mbytes
   Step        Density          Temp          Press          TotEng    
         0   1.1143736      305.53455      259.18404     -13903.5      
    100000   1.1143736      310.09489      161.0799      -13870.943    
    200000   1.1143736      296.69088     -598.99985     -13941.058    
    250000   1.1143736      296.9569       338.12145     -13957.321    
Loop time of 1272 on 12 procs for 250000 steps with 1608 atoms

Performance: 16.981 ns/day, 1.413 hours/ns, 196.541 timesteps/s
93.9% CPU use with 12 MPI tasks x no OpenMP threads

MPI task timing breakdown:
Section |  min time  |  avg time  |  max time  |%varavg| %total
---------------------------------------------------------------
Pair    | 732.2      | 790.5      | 835.24     | 126.7 | 62.15
Bond    | 3.4198     | 3.5156     | 3.5747     |   2.2 |  0.28
Kspace  | 297.55     | 342.35     | 400.58     | 193.0 | 26.91
Neigh   | 21.355     | 21.371     | 21.38      |   0.1 |  1.68
Comm    | 35.394     | 35.785     | 36.158     |   3.2 |  2.81
Output  | 0.07274    | 0.073086   | 0.073505   |   0.1 |  0.01
Modify  | 73.361     | 73.494     | 73.64      |   1.0 |  5.78
Other   |            | 4.905      |            |       |  0.39

Nlocal:            134 ave         145 max         124 min
Histogram: 1 0 1 4 2 1 0 1 1 1
Nghost:        4332.58 ave        4380 max        4301 min
Histogram: 2 1 2 0 4 1 0 0 1 1
Neighs:        49911.7 ave       55421 max       43769 min
Histogram: 1 1 0 0 4 1 0 3 0 2

Total # of neighbors = 598940
Ave neighs/atom = 372.47512
Ave special neighs/atom = 1.8656716
Neighbor list builds = 10098
Dangerous builds = 0
shell bash copy_files.sh dt_${tstep} 00.25Mstep
shell bash copy_files.sh dt_1 00.25Mstep

run ${Nrun1}
run 250000
PPPM initialization ...
  extracting TIP4P info from pair style
  using 12-bit tables for long-range coulomb (../kspace.cpp:342)
  G vector (1/distance) = 0.31041357
  grid = 24 24 24
  stencil order = 5
  estimated absolute RMS force accuracy = 0.0037561872
  estimated relative force accuracy = 1.1311646e-05
  using double precision KISS FFT
  3d grid and FFT values/proc = 5415 1152
Generated 0 of 6 mixed pair_coeff terms from arithmetic mixing rule
Per MPI rank memory allocation (min/avg/max) = 14.4 | 14.41 | 14.41 Mbytes
   Step        Density          Temp          Press          TotEng    
    250000   1.1143736      296.9569       338.17408     -13957.321    
    300000   1.1143736      302.46059      74.194861     -13915.322    
    400000   1.1143736      303.63427      405.47366     -13920.27     
    500000   1.1143736      304.23607     -436.05011     -13879.003    
Loop time of 1272.77 on 12 procs for 250000 steps with 1608 atoms

Performance: 16.971 ns/day, 1.414 hours/ns, 196.421 timesteps/s
93.8% CPU use with 12 MPI tasks x no OpenMP threads

MPI task timing breakdown:
Section |  min time  |  avg time  |  max time  |%varavg| %total
---------------------------------------------------------------
Pair    | 723.11     | 788.55     | 843.37     | 138.7 | 61.96
Bond    | 3.4137     | 3.4951     | 3.5539     |   2.0 |  0.27
Kspace  | 290.21     | 345.09     | 410.48     | 210.0 | 27.11
Neigh   | 21.37      | 21.384     | 21.396     |   0.1 |  1.68
Comm    | 35.368     | 35.755     | 36.099     |   3.2 |  2.81
Output  | 0.10684    | 0.10715    | 0.10752    |   0.1 |  0.01
Modify  | 73.4       | 73.495     | 73.67      |   0.9 |  5.77
Other   |            | 4.903      |            |       |  0.39

Nlocal:            134 ave         152 max         123 min
Histogram: 2 3 1 0 2 0 3 0 0 1
Nghost:           4289 ave        4353 max        4228 min
Histogram: 1 0 2 2 2 1 1 1 1 1
Neighs:        49936.2 ave       55661 max       42974 min
Histogram: 1 1 0 1 1 2 3 1 1 1

Total # of neighbors = 599234
Ave neighs/atom = 372.65796
Ave special neighs/atom = 1.8656716
Neighbor list builds = 10076
Dangerous builds = 0
shell bash copy_files.sh dt_${tstep} 00.50Mstep
shell bash copy_files.sh dt_1 00.50Mstep

run ${Nrun1}
run 250000
PPPM initialization ...
  extracting TIP4P info from pair style
  using 12-bit tables for long-range coulomb (../kspace.cpp:342)
  G vector (1/distance) = 0.31041357
  grid = 24 24 24
  stencil order = 5
  estimated absolute RMS force accuracy = 0.0037561872
  estimated relative force accuracy = 1.1311646e-05
  using double precision KISS FFT
  3d grid and FFT values/proc = 5415 1152
Generated 0 of 6 mixed pair_coeff terms from arithmetic mixing rule
Per MPI rank memory allocation (min/avg/max) = 14.4 | 14.41 | 14.41 Mbytes
   Step        Density          Temp          Press          TotEng    
    500000   1.1143736      304.23607     -435.91672     -13879.003    
    600000   1.1143736      295.11358     -109.13193     -13916.317    
    700000   1.1143736      292.76801     -166.22841     -13975.251    
    750000   1.1143736      314.14473      57.79637      -13865.483    
Loop time of 1280.17 on 12 procs for 250000 steps with 1608 atoms

Performance: 16.873 ns/day, 1.422 hours/ns, 195.286 timesteps/s
93.5% CPU use with 12 MPI tasks x no OpenMP threads

MPI task timing breakdown:
Section |  min time  |  avg time  |  max time  |%varavg| %total
---------------------------------------------------------------
Pair    | 732.11     | 788.92     | 850.91     | 143.2 | 61.63
Bond    | 3.3912     | 3.4904     | 3.574      |   2.4 |  0.27
Kspace  | 290.04     | 352.11     | 408.87     | 214.8 | 27.51
Neigh   | 21.402     | 21.418     | 21.431     |   0.1 |  1.67
Comm    | 35.307     | 35.747     | 36.105     |   3.4 |  2.79
Output  | 0.071116   | 0.071497   | 0.071866   |   0.1 |  0.01
Modify  | 73.364     | 73.486     | 73.674     |   1.1 |  5.74
Other   |            | 4.924      |            |       |  0.38

Nlocal:            134 ave         143 max         122 min
Histogram: 1 1 0 1 2 2 0 2 0 3
Nghost:        4299.08 ave        4346 max        4261 min
Histogram: 4 1 1 0 0 1 1 0 2 2
Neighs:        49915.2 ave       55424 max       42142 min
Histogram: 1 0 2 1 1 0 2 1 2 2

Total # of neighbors = 598983
Ave neighs/atom = 372.50187
Ave special neighs/atom = 1.8656716
Neighbor list builds = 10083
Dangerous builds = 0
shell bash copy_files.sh dt_${tstep} 00.75Mstep
shell bash copy_files.sh dt_1 00.75Mstep

run ${Nrun1}
run 250000
PPPM initialization ...
  extracting TIP4P info from pair style
  using 12-bit tables for long-range coulomb (../kspace.cpp:342)
  G vector (1/distance) = 0.31041357
  grid = 24 24 24
  stencil order = 5
  estimated absolute RMS force accuracy = 0.0037561872
  estimated relative force accuracy = 1.1311646e-05
  using double precision KISS FFT
  3d grid and FFT values/proc = 5415 1152
Generated 0 of 6 mixed pair_coeff terms from arithmetic mixing rule
Per MPI rank memory allocation (min/avg/max) = 14.4 | 14.41 | 14.41 Mbytes
   Step        Density          Temp          Press          TotEng    
    750000   1.1143736      314.14473      57.613572     -13865.483    
    800000   1.1143736      308.76999      487.71685     -13910.248    
    900000   1.1143736      296.1231      -149.40837     -13971.628    
   1000000   1.1143736      301.77701     -908.33958     -13893.89     
Loop time of 1271.85 on 12 procs for 250000 steps with 1608 atoms

Performance: 16.983 ns/day, 1.413 hours/ns, 196.565 timesteps/s
93.7% CPU use with 12 MPI tasks x no OpenMP threads

MPI task timing breakdown:
Section |  min time  |  avg time  |  max time  |%varavg| %total
---------------------------------------------------------------
Pair    | 723.33     | 785.88     | 841.63     | 143.8 | 61.79
Bond    | 3.3794     | 3.5052     | 3.5895     |   2.7 |  0.28
Kspace  | 290.95     | 346.79     | 409.31     | 216.9 | 27.27
Neigh   | 21.37      | 21.38      | 21.39      |   0.1 |  1.68
Comm    | 35.166     | 35.639     | 35.98      |   3.5 |  2.80
Output  | 0.10685    | 0.10729    | 0.10769    |   0.1 |  0.01
Modify  | 73.516     | 73.626     | 73.842     |   1.1 |  5.79
Other   |            | 4.926      |            |       |  0.39

Nlocal:            134 ave         144 max         125 min
Histogram: 1 1 3 1 1 0 2 0 2 1
Nghost:        4286.92 ave        4317 max        4248 min
Histogram: 1 0 3 0 0 2 1 2 1 2
Neighs:        49945.7 ave       56086 max       44350 min
Histogram: 2 0 2 1 1 2 1 1 0 2

Total # of neighbors = 599348
Ave neighs/atom = 372.72886
Ave special neighs/atom = 1.8656716
Neighbor list builds = 10098
Dangerous builds = 0
shell bash copy_files.sh dt_${tstep} 01.00Mstep
shell bash copy_files.sh dt_1 01.00Mstep

run ${Nrun1}
run 250000
PPPM initialization ...
  extracting TIP4P info from pair style
  using 12-bit tables for long-range coulomb (../kspace.cpp:342)
  G vector (1/distance) = 0.31041357
  grid = 24 24 24
  stencil order = 5
  estimated absolute RMS force accuracy = 0.0037561872
  estimated relative force accuracy = 1.1311646e-05
  using double precision KISS FFT
  3d grid and FFT values/proc = 5415 1152
Generated 0 of 6 mixed pair_coeff terms from arithmetic mixing rule
Per MPI rank memory allocation (min/avg/max) = 14.4 | 14.41 | 14.41 Mbytes
   Step        Density          Temp          Press          TotEng    
   1000000   1.1143736      301.77701     -908.2175      -13893.89     
   1100000   1.1143736      293.70028     -733.3176      -13896.349    
   1200000   1.1143736      288.45438     -215.14913     -13964.236    
   1250000   1.1143736      298.13131     -364.58028     -13961.832    
Loop time of 1271.62 on 12 procs for 250000 steps with 1608 atoms

Performance: 16.986 ns/day, 1.413 hours/ns, 196.600 timesteps/s
93.8% CPU use with 12 MPI tasks x no OpenMP threads

MPI task timing breakdown:
Section |  min time  |  avg time  |  max time  |%varavg| %total
---------------------------------------------------------------
Pair    | 719.62     | 787.39     | 838.14     | 136.4 | 61.92
Bond    | 3.439      | 3.508      | 3.5811     |   2.7 |  0.28
Kspace  | 293.85     | 344.95     | 412.71     | 206.5 | 27.13
Neigh   | 21.428     | 21.438     | 21.449     |   0.1 |  1.69
Comm    | 35.333     | 35.753     | 36.061     |   3.1 |  2.81
Output  | 0.071292   | 0.071802   | 0.072245   |   0.1 |  0.01
Modify  | 73.464     | 73.577     | 73.775     |   1.1 |  5.79
Other   |            | 4.931      |            |       |  0.39

Nlocal:            134 ave         143 max         124 min
Histogram: 1 0 1 4 0 1 1 1 2 1
Nghost:           4289 ave        4359 max        4245 min
Histogram: 2 1 0 4 3 0 0 0 0 2
Neighs:        49898.6 ave       58110 max       45686 min
Histogram: 3 1 3 1 1 1 1 0 0 1

Total # of neighbors = 598783
Ave neighs/atom = 372.37749
Ave special neighs/atom = 1.8656716
Neighbor list builds = 10097
Dangerous builds = 0
shell bash copy_files.sh dt_${tstep} 01.25Mstep
shell bash copy_files.sh dt_1 01.25Mstep

run ${Nrun1}
run 250000
PPPM initialization ...
  extracting TIP4P info from pair style
  using 12-bit tables for long-range coulomb (../kspace.cpp:342)
  G vector (1/distance) = 0.31041357
  grid = 24 24 24
  stencil order = 5
  estimated absolute RMS force accuracy = 0.0037561872
  estimated relative force accuracy = 1.1311646e-05
  using double precision KISS FFT
  3d grid and FFT values/proc = 5415 1152
Generated 0 of 6 mixed pair_coeff terms from arithmetic mixing rule
Per MPI rank memory allocation (min/avg/max) = 14.4 | 14.41 | 14.41 Mbytes
   Step        Density          Temp          Press          TotEng    
   1250000   1.1143736      298.13131     -364.51795     -13961.832    
   1300000   1.1143736      287.79539      736.29629     -13933.453    
   1400000   1.1143736      294.77676     -651.21821     -13909.471    
   1500000   1.1143736      294.01063      40.345833     -13935.164    
Loop time of 1271.97 on 12 procs for 250000 steps with 1608 atoms

Performance: 16.982 ns/day, 1.413 hours/ns, 196.546 timesteps/s
93.8% CPU use with 12 MPI tasks x no OpenMP threads

MPI task timing breakdown:
Section |  min time  |  avg time  |  max time  |%varavg| %total
---------------------------------------------------------------
Pair    | 736.62     | 789.27     | 848.61     | 134.2 | 62.05
Bond    | 3.413      | 3.515      | 3.5822     |   2.7 |  0.28
Kspace  | 283.9      | 343.36     | 396.39     | 204.0 | 26.99
Neigh   | 21.419     | 21.429     | 21.444     |   0.2 |  1.68
Comm    | 35.285     | 35.701     | 36.052     |   3.3 |  2.81
Output  | 0.1065     | 0.1069     | 0.10732    |   0.1 |  0.01
Modify  | 73.537     | 73.647     | 73.848     |   1.0 |  5.79
Other   |            | 4.931      |            |       |  0.39

Nlocal:            134 ave         145 max         123 min
Histogram: 2 0 2 1 1 2 0 1 1 2
Nghost:        4304.83 ave        4353 max        4251 min
Histogram: 1 2 0 0 3 0 1 3 0 2
Neighs:        49930.5 ave       55426 max       44450 min
Histogram: 1 1 0 0 4 4 0 0 0 2

Total # of neighbors = 599166
Ave neighs/atom = 372.61567
Ave special neighs/atom = 1.8656716
Neighbor list builds = 10114
Dangerous builds = 0
shell bash copy_files.sh dt_${tstep} 01.50Mstep
shell bash copy_files.sh dt_1 01.50Mstep

run ${Nrun1}
run 250000
PPPM initialization ...
  extracting TIP4P info from pair style
  using 12-bit tables for long-range coulomb (../kspace.cpp:342)
  G vector (1/distance) = 0.31041357
  grid = 24 24 24
  stencil order = 5
  estimated absolute RMS force accuracy = 0.0037561872
  estimated relative force accuracy = 1.1311646e-05
  using double precision KISS FFT
  3d grid and FFT values/proc = 5415 1152
Generated 0 of 6 mixed pair_coeff terms from arithmetic mixing rule
Per MPI rank memory allocation (min/avg/max) = 14.4 | 14.41 | 14.41 Mbytes
   Step        Density          Temp          Press          TotEng    
   1500000   1.1143736      294.01063      40.210377     -13935.164    
   1600000   1.1143736      295.75715      368.87419     -13904.808    
   1700000   1.1143736      304.33883      452.08537     -13912.853    
   1750000   1.1143736      295.83477     -928.99208     -13939.174    
Loop time of 1267.46 on 12 procs for 250000 steps with 1608 atoms

Performance: 17.042 ns/day, 1.408 hours/ns, 197.244 timesteps/s
93.9% CPU use with 12 MPI tasks x no OpenMP threads

MPI task timing breakdown:
Section |  min time  |  avg time  |  max time  |%varavg| %total
---------------------------------------------------------------
Pair    | 742.92     | 785.72     | 830.07     | 118.5 | 61.99
Bond    | 3.4222     | 3.5144     | 3.5702     |   2.2 |  0.28
Kspace  | 297.81     | 342.25     | 385.07     | 180.0 | 27.00
Neigh   | 21.496     | 21.507     | 21.519     |   0.1 |  1.70
Comm    | 35.442     | 35.796     | 36.117     |   2.8 |  2.82
Output  | 0.07113    | 0.071508   | 0.071977   |   0.1 |  0.01
Modify  | 73.537     | 73.668     | 73.815     |   1.0 |  5.81
Other   |            | 4.932      |            |       |  0.39

Nlocal:            134 ave         146 max         128 min
Histogram: 1 2 5 1 1 0 0 1 0 1
Nghost:        4338.08 ave        4361 max        4321 min
Histogram: 3 1 1 0 2 2 0 1 0 2
Neighs:        49944.7 ave       55734 max       46258 min
Histogram: 3 0 1 2 2 2 0 1 0 1

Total # of neighbors = 599336
Ave neighs/atom = 372.72139
Ave special neighs/atom = 1.8656716
Neighbor list builds = 10154
Dangerous builds = 0
shell bash copy_files.sh dt_${tstep} 01.75Mstep
shell bash copy_files.sh dt_1 01.75Mstep

run ${Nrun1}
run 250000
PPPM initialization ...
  extracting TIP4P info from pair style
  using 12-bit tables for long-range coulomb (../kspace.cpp:342)
  G vector (1/distance) = 0.31041357
  grid = 24 24 24
  stencil order = 5
  estimated absolute RMS force accuracy = 0.0037561872
  estimated relative force accuracy = 1.1311646e-05
  using double precision KISS FFT
  3d grid and FFT values/proc = 5415 1152
Generated 0 of 6 mixed pair_coeff terms from arithmetic mixing rule
Per MPI rank memory allocation (min/avg/max) = 14.4 | 14.41 | 14.41 Mbytes
   Step        Density          Temp          Press          TotEng    
   1750000   1.1143736      295.83477     -928.85607     -13939.174    
   1800000   1.1143736      308.64125      179.76885     -13890.722    
   1900000   1.1143736      299.32297      653.18138     -13969.255    
   2000000   1.1143736      307.78787     -162.78723     -13921.581    
Loop time of 1278.9 on 12 procs for 250000 steps with 1608 atoms

Performance: 16.890 ns/day, 1.421 hours/ns, 195.481 timesteps/s
93.5% CPU use with 12 MPI tasks x no OpenMP threads

MPI task timing breakdown:
Section |  min time  |  avg time  |  max time  |%varavg| %total
---------------------------------------------------------------
Pair    | 728.72     | 788.41     | 863.67     | 148.6 | 61.65
Bond    | 3.4044     | 3.4956     | 3.5629     |   2.1 |  0.27
Kspace  | 275.86     | 351.22     | 411        | 223.2 | 27.46
Neigh   | 21.372     | 21.385     | 21.397     |   0.1 |  1.67
Comm    | 35.29      | 35.72      | 36.102     |   3.5 |  2.79
Output  | 0.10658    | 0.10683    | 0.10731    |   0.1 |  0.01
Modify  | 73.519     | 73.628     | 73.837     |   1.1 |  5.76
Other   |            | 4.934      |            |       |  0.39

Nlocal:            134 ave         143 max         125 min
Histogram: 1 1 3 2 0 1 0 0 1 3
Nghost:        4319.75 ave        4364 max        4253 min
Histogram: 1 0 1 1 2 1 0 1 4 1
Neighs:        49917.7 ave       57261 max       45166 min
Histogram: 3 1 1 1 2 0 2 1 0 1

Total # of neighbors = 599012
Ave neighs/atom = 372.5199
Ave special neighs/atom = 1.8656716
Neighbor list builds = 10083
Dangerous builds = 0
shell bash copy_files.sh dt_${tstep} 02.00step
shell bash copy_files.sh dt_1 02.00step

run ${Nrun2}
run 1000000
PPPM initialization ...
  extracting TIP4P info from pair style
  using 12-bit tables for long-range coulomb (../kspace.cpp:342)
  G vector (1/distance) = 0.31041357
  grid = 24 24 24
  stencil order = 5
  estimated absolute RMS force accuracy = 0.0037561872
  estimated relative force accuracy = 1.1311646e-05
  using double precision KISS FFT
  3d grid and FFT values/proc = 5415 1152
Generated 0 of 6 mixed pair_coeff terms from arithmetic mixing rule
Per MPI rank memory allocation (min/avg/max) = 14.4 | 14.41 | 14.41 Mbytes
   Step        Density          Temp          Press          TotEng    
   2000000   1.1143736      307.78787     -162.76692     -13921.581    
   2100000   1.1143736      298.10669     -555.13661     -13946.07     
   2200000   1.1143736      297.88882      289.15218     -13933.178    
   2300000   1.1143736      283.1489      -380.81136     -13979.906    
   2400000   1.1143736      293.91287     -315.69418     -13891.138    
   2500000   1.1143736      284.31206     -735.53149     -14029.565    
   2600000   1.1143736      295.50704      939.80867     -13854.05     
   2700000   1.1143736      312.93038     -2.570104      -13904.638    
   2800000   1.1143736      311.41279      349.34522     -13888.661    
   2900000   1.1143736      306.05268      49.904942     -13944.037    
   3000000   1.1143736      294.96738     -181.12209     -13980.094    
Loop time of 5093.77 on 12 procs for 1000000 steps with 1608 atoms

Performance: 16.962 ns/day, 1.415 hours/ns, 196.318 timesteps/s
93.7% CPU use with 12 MPI tasks x no OpenMP threads

MPI task timing breakdown:
Section |  min time  |  avg time  |  max time  |%varavg| %total
---------------------------------------------------------------
Pair    | 2933.4     | 3152       | 3380.4     | 252.3 | 61.88
Bond    | 13.691     | 14.05      | 14.265     |   3.9 |  0.28
Kspace  | 1155.8     | 1384.6     | 1603.7     | 381.6 | 27.18
Neigh   | 85.676     | 85.72      | 85.762     |   0.3 |  1.68
Comm    | 141.41     | 143.02     | 144.47     |   6.4 |  2.81
Output  | 0.35491    | 0.35547    | 0.35652    |   0.1 |  0.01
Modify  | 293.94     | 294.31     | 294.98     |   1.8 |  5.78
Other   |            | 19.68      |            |       |  0.39

Nlocal:            134 ave         141 max         128 min
Histogram: 2 1 1 2 0 2 1 0 1 2
Nghost:        4283.17 ave        4306 max        4257 min
Histogram: 1 0 1 2 3 1 1 0 1 2
Neighs:        49920.6 ave       54459 max       45301 min
Histogram: 1 0 2 1 3 0 2 2 0 1

Total # of neighbors = 599047
Ave neighs/atom = 372.54167
Ave special neighs/atom = 1.8656716
Neighbor list builds = 40387
Dangerous builds = 0
shell bash copy_files.sh dt_${tstep} 03.00Mstep
shell bash copy_files.sh dt_1 03.00Mstep

run ${Nrun2}
run 1000000
PPPM initialization ...
  extracting TIP4P info from pair style
  using 12-bit tables for long-range coulomb (../kspace.cpp:342)
  G vector (1/distance) = 0.31041357
  grid = 24 24 24
  stencil order = 5
  estimated absolute RMS force accuracy = 0.0037561872
  estimated relative force accuracy = 1.1311646e-05
  using double precision KISS FFT
  3d grid and FFT values/proc = 5415 1152
Generated 0 of 6 mixed pair_coeff terms from arithmetic mixing rule
Per MPI rank memory allocation (min/avg/max) = 14.4 | 14.41 | 14.41 Mbytes
   Step        Density          Temp          Press          TotEng    
   3000000   1.1143736      294.96738     -181.23533     -13980.094    
   3100000   1.1143736      299.60782      256.14157     -13874.321    
   3200000   1.1143736      292.88865     -562.37624     -13944.791    
   3300000   1.1143736      298.02605     -118.11381     -13960.591    
   3400000   1.1143736      302.74935     -295.29884     -13875.792    
   3500000   1.1143736      296.11174      868.90789     -13892        
   3600000   1.1143736      292.81436      1224.3363     -13843.527    
   3700000   1.1143736      295.48758      707.82049     -13892.26     
   3800000   1.1143736      302.10676     -249.83191     -13956.225    
   3900000   1.1143736      308.73076      289.20097     -13887.878    
   4000000   1.1143736      297.95466      152.08816     -13977.118    
Loop time of 5085.97 on 12 procs for 1000000 steps with 1608 atoms

Performance: 16.988 ns/day, 1.413 hours/ns, 196.619 timesteps/s
93.8% CPU use with 12 MPI tasks x no OpenMP threads

MPI task timing breakdown:
Section |  min time  |  avg time  |  max time  |%varavg| %total
---------------------------------------------------------------
Pair    | 2942.4     | 3154       | 3346.9     | 245.0 | 62.01
Bond    | 13.779     | 14.058     | 14.262     |   4.0 |  0.28
Kspace  | 1181.3     | 1374.4     | 1586.7     | 372.1 | 27.02
Neigh   | 85.836     | 85.871     | 85.911     |   0.2 |  1.69
Comm    | 141.39     | 143        | 144.28     |   6.4 |  2.81
Output  | 0.35582    | 0.35654    | 0.35758    |   0.1 |  0.01
Modify  | 294.05     | 294.46     | 295.11     |   1.7 |  5.79
Other   |            | 19.75      |            |       |  0.39

Nlocal:            134 ave         140 max         126 min
Histogram: 1 0 2 0 2 1 0 4 0 2
Nghost:        4292.25 ave        4344 max        4261 min
Histogram: 1 2 3 1 1 3 0 0 0 1
Neighs:        49942.3 ave       55560 max       45182 min
Histogram: 3 0 1 1 1 2 1 2 0 1

Total # of neighbors = 599308
Ave neighs/atom = 372.70398
Ave special neighs/atom = 1.8656716
Neighbor list builds = 40353
Dangerous builds = 0
shell bash copy_files.sh dt_${tstep} 04.00Mstep
shell bash copy_files.sh dt_1 04.00Mstep

run ${Nrun2}
run 1000000
PPPM initialization ...
  extracting TIP4P info from pair style
  using 12-bit tables for long-range coulomb (../kspace.cpp:342)
  G vector (1/distance) = 0.31041357
  grid = 24 24 24
  stencil order = 5
  estimated absolute RMS force accuracy = 0.0037561872
  estimated relative force accuracy = 1.1311646e-05
  using double precision KISS FFT
  3d grid and FFT values/proc = 5415 1152
Generated 0 of 6 mixed pair_coeff terms from arithmetic mixing rule
Per MPI rank memory allocation (min/avg/max) = 14.4 | 14.41 | 14.41 Mbytes
   Step        Density          Temp          Press          TotEng    
   4000000   1.1143736      297.95466      152.21        -13977.118    
   4100000   1.1143736      313.84642     -644.13974     -13873.324    
   4200000   1.1143736      300.05862      966.0524      -13942.649    
   4300000   1.1143736      293.74859      579.99142     -13920.878    
   4400000   1.1143736      289.70327     -487.94604     -14001.387    
   4500000   1.1143736      284.30536     -345.70238     -13927.428    
   4600000   1.1143736      288.47177     -244.91592     -13871.311    
   4700000   1.1143736      304.54822     -539.18475     -13839.513    
   4800000   1.1143736      288.17262     -332.35105     -13899.162    
   4900000   1.1143736      290.50654     -389.95186     -13880.503    
   5000000   1.1143736      311.39098     -134.39843     -13934.627    
Loop time of 5093.62 on 12 procs for 1000000 steps with 1608 atoms

Performance: 16.962 ns/day, 1.415 hours/ns, 196.324 timesteps/s
93.7% CPU use with 12 MPI tasks x no OpenMP threads

MPI task timing breakdown:
Section |  min time  |  avg time  |  max time  |%varavg| %total
---------------------------------------------------------------
Pair    | 2945       | 3146.7     | 3330.7     | 266.8 | 61.78
Bond    | 13.754     | 14.034     | 14.259     |   3.7 |  0.28
Kspace  | 1204       | 1389.4     | 1590.8     | 402.4 | 27.28
Neigh   | 85.679     | 85.713     | 85.768     |   0.3 |  1.68
Comm    | 141.72     | 143.21     | 144.51     |   6.3 |  2.81
Output  | 0.3554     | 0.35659    | 0.3582     |   0.1 |  0.01
Modify  | 294.08     | 294.39     | 294.94     |   1.5 |  5.78
Other   |            | 19.78      |            |       |  0.39

Nlocal:            134 ave         147 max         125 min
Histogram: 3 1 1 1 1 1 3 0 0 1
Nghost:        4319.58 ave        4376 max        4278 min
Histogram: 3 0 2 2 1 0 1 1 1 1
Neighs:        49923.8 ave       55796 max       45677 min
Histogram: 1 0 4 2 2 0 2 0 0 1

Total # of neighbors = 599085
Ave neighs/atom = 372.5653
Ave special neighs/atom = 1.8656716
Neighbor list builds = 40344
Dangerous builds = 0
shell bash copy_files.sh dt_${tstep} 05.00Mstep
shell bash copy_files.sh dt_1 05.00Mstep

run ${Nrun2}
run 1000000
PPPM initialization ...
  extracting TIP4P info from pair style
  using 12-bit tables for long-range coulomb (../kspace.cpp:342)
  G vector (1/distance) = 0.31041357
  grid = 24 24 24
  stencil order = 5
  estimated absolute RMS force accuracy = 0.0037561872
  estimated relative force accuracy = 1.1311646e-05
  using double precision KISS FFT
  3d grid and FFT values/proc = 5415 1152
Generated 0 of 6 mixed pair_coeff terms from arithmetic mixing rule
Per MPI rank memory allocation (min/avg/max) = 14.4 | 14.41 | 14.41 Mbytes
   Step        Density          Temp          Press          TotEng    
   5000000   1.1143736      311.39098     -134.78774     -13934.627    
   5100000   1.1143736      300.83014      272.71609     -13856.068    
   5200000   1.1143736      295.37541      228.62438     -13948.591    
   5300000   1.1143736      300.04907     -152.55956     -13873.561    
   5400000   1.1143736      295.44942     -431.01075     -13830.926    
   5500000   1.1143736      292.15118     -185.78388     -13910.818    
   5600000   1.1143736      309.52408     -476.69163     -13877.674    
   5700000   1.1143736      302.45397     -143.84397     -13897.323    
   5800000   1.1143736      296.63907     -113.37668     -14006.37     
   5900000   1.1143736      306.17531      603.1817      -13881.075    
   6000000   1.1143736      302.24949     -419.46245     -13902.864    
Loop time of 5088.18 on 12 procs for 1000000 steps with 1608 atoms

Performance: 16.981 ns/day, 1.413 hours/ns, 196.534 timesteps/s
93.9% CPU use with 12 MPI tasks x no OpenMP threads

MPI task timing breakdown:
Section |  min time  |  avg time  |  max time  |%varavg| %total
---------------------------------------------------------------
Pair    | 2966.9     | 3160.4     | 3356.6     | 250.3 | 62.11
Bond    | 13.674     | 14.062     | 14.303     |   4.4 |  0.28
Kspace  | 1175.1     | 1370.5     | 1565.5     | 381.0 | 26.93
Neigh   | 85.486     | 85.529     | 85.582     |   0.3 |  1.68
Comm    | 141.5      | 142.98     | 144.41     |   6.1 |  2.81
Output  | 0.35441    | 0.35667    | 0.35763    |   0.1 |  0.01
Modify  | 294.16     | 294.53     | 295.15     |   1.8 |  5.79
Other   |            | 19.8       |            |       |  0.39

Nlocal:            134 ave         144 max         126 min
Histogram: 3 0 0 1 2 2 2 1 0 1
Nghost:        4309.08 ave        4346 max        4276 min
Histogram: 1 1 2 1 0 4 0 2 0 1
Neighs:        49928.6 ave       54965 max       46782 min
Histogram: 2 4 1 1 0 0 1 0 1 2

Total # of neighbors = 599143
Ave neighs/atom = 372.60137
Ave special neighs/atom = 1.8656716
Neighbor list builds = 40361
Dangerous builds = 0
shell bash copy_files.sh dt_${tstep} 06.00Mstep
shell bash copy_files.sh dt_1 06.00Mstep

run ${Nrun2}
run 1000000
PPPM initialization ...
  extracting TIP4P info from pair style
  using 12-bit tables for long-range coulomb (../kspace.cpp:342)
  G vector (1/distance) = 0.31041357
  grid = 24 24 24
  stencil order = 5
  estimated absolute RMS force accuracy = 0.0037561872
  estimated relative force accuracy = 1.1311646e-05
  using double precision KISS FFT
  3d grid and FFT values/proc = 5415 1152
Generated 0 of 6 mixed pair_coeff terms from arithmetic mixing rule
Per MPI rank memory allocation (min/avg/max) = 14.4 | 14.41 | 14.41 Mbytes
   Step        Density          Temp          Press          TotEng    
   6000000   1.1143736      302.24949     -419.55668     -13902.864    
   6100000   1.1143736      284.51692     -728.1938      -14065.4      
   6200000   1.1143736      297.41         1379.788      -13880.343    
   6300000   1.1143736      298.66097     -750.75652     -13889.274    
   6400000   1.1143736      295.77129      380.5427      -13973.796    
   6500000   1.1143736      304.45972     -440.33114     -13851.028    
   6600000   1.1143736      296.17213     -412.58613     -13956.665    
   6700000   1.1143736      303.49461      256.63972     -13904.011    
   6800000   1.1143736      296.02952      36.536484     -13909.709    
   6900000   1.1143736      307.05339     -1022.765      -13860.567    
   7000000   1.1143736      298.16845     -436.3366      -13906.231    
Loop time of 5082.2 on 12 procs for 1000000 steps with 1608 atoms

Performance: 17.001 ns/day, 1.412 hours/ns, 196.765 timesteps/s
93.8% CPU use with 12 MPI tasks x no OpenMP threads

MPI task timing breakdown:
Section |  min time  |  avg time  |  max time  |%varavg| %total
---------------------------------------------------------------
Pair    | 2919.9     | 3145.7     | 3335.5     | 260.1 | 61.90
Bond    | 13.695     | 14.01      | 14.245     |   4.6 |  0.28
Kspace  | 1189.8     | 1380       | 1605.8     | 393.7 | 27.15
Neigh   | 85.46      | 85.508     | 85.547     |   0.2 |  1.68
Comm    | 141.25     | 142.84     | 144.32     |   6.4 |  2.81
Output  | 0.35582    | 0.35631    | 0.35725    |   0.1 |  0.01
Modify  | 293.68     | 294.11     | 294.81     |   2.1 |  5.79
Other   |            | 19.69      |            |       |  0.39

Nlocal:            134 ave         143 max         124 min
Histogram: 2 2 0 0 1 0 1 3 2 1
Nghost:        4283.92 ave        4370 max        4206 min
Histogram: 1 1 3 0 0 3 2 0 1 1
Neighs:        49952.1 ave       54306 max       43026 min
Histogram: 1 1 0 1 0 2 2 1 1 3

Total # of neighbors = 599425
Ave neighs/atom = 372.77674
Ave special neighs/atom = 1.8656716
Neighbor list builds = 40350
Dangerous builds = 0
shell bash copy_files.sh dt_${tstep} 07.00Mstep
shell bash copy_files.sh dt_1 07.00Mstep

run ${Nrun2}
run 1000000
PPPM initialization ...
  extracting TIP4P info from pair style
  using 12-bit tables for long-range coulomb (../kspace.cpp:342)
  G vector (1/distance) = 0.31041357
  grid = 24 24 24
  stencil order = 5
  estimated absolute RMS force accuracy = 0.0037561872
  estimated relative force accuracy = 1.1311646e-05
  using double precision KISS FFT
  3d grid and FFT values/proc = 5415 1152
Generated 0 of 6 mixed pair_coeff terms from arithmetic mixing rule
Per MPI rank memory allocation (min/avg/max) = 14.4 | 14.41 | 14.41 Mbytes
   Step        Density          Temp          Press          TotEng    
   7000000   1.1143736      298.16845     -436.35053     -13906.231    
   7100000   1.1143736      298.6364       489.86185     -13941.269    
   7200000   1.1143736      294.73784      343.59975     -13909.466    
   7300000   1.1143736      299.17724      34.405063     -13861.636    
   7400000   1.1143736      286.21143     -543.28593     -13987.058    
   7500000   1.1143736      288.82693      101.08409     -13961.523    
   7600000   1.1143736      305.40054      241.66552     -13929.258    
   7700000   1.1143736      292.70134      495.99651     -13975.288    
   7800000   1.1143736      294.2182       398.61551     -13905.485    
   7900000   1.1143736      307.99913      203.79988     -13862.148    
   8000000   1.1143736      297.64135      145.93428     -13882.082    
Loop time of 5081.29 on 12 procs for 1000000 steps with 1608 atoms

Performance: 17.004 ns/day, 1.411 hours/ns, 196.801 timesteps/s
93.8% CPU use with 12 MPI tasks x no OpenMP threads

MPI task timing breakdown:
Section |  min time  |  avg time  |  max time  |%varavg| %total
---------------------------------------------------------------
Pair    | 2892.5     | 3148       | 3335.3     | 264.3 | 61.95
Bond    | 13.62      | 14.015     | 14.251     |   4.8 |  0.28
Kspace  | 1188.6     | 1376.4     | 1631.6     | 400.6 | 27.09
Neigh   | 85.436     | 85.488     | 85.534     |   0.3 |  1.68
Comm    | 140.91     | 142.83     | 144.25     |   7.1 |  2.81
Output  | 0.35573    | 0.35723    | 0.35832    |   0.1 |  0.01
Modify  | 294.11     | 294.55     | 295.37     |   2.2 |  5.80
Other   |            | 19.67      |            |       |  0.39

Nlocal:            134 ave         143 max         128 min
Histogram: 2 0 3 2 2 0 1 0 0 2
Nghost:        4290.83 ave        4354 max        4238 min
Histogram: 2 1 0 1 3 3 0 0 1 1
Neighs:          49967 ave       56166 max       44338 min
Histogram: 2 0 1 2 2 2 0 1 1 1

Total # of neighbors = 599604
Ave neighs/atom = 372.88806
Ave special neighs/atom = 1.8656716
Neighbor list builds = 40306
Dangerous builds = 0
shell bash copy_files.sh dt_${tstep} 08.00Mstep
shell bash copy_files.sh dt_1 08.00Mstep

run ${Nrun2}
run 1000000
PPPM initialization ...
  extracting TIP4P info from pair style
  using 12-bit tables for long-range coulomb (../kspace.cpp:342)
  G vector (1/distance) = 0.31041357
  grid = 24 24 24
  stencil order = 5
  estimated absolute RMS force accuracy = 0.0037561872
  estimated relative force accuracy = 1.1311646e-05
  using double precision KISS FFT
  3d grid and FFT values/proc = 5415 1152
Generated 0 of 6 mixed pair_coeff terms from arithmetic mixing rule
Per MPI rank memory allocation (min/avg/max) = 14.4 | 14.41 | 14.41 Mbytes
   Step        Density          Temp          Press          TotEng    
   8000000   1.1143736      297.64135      145.86886     -13882.082    
   8100000   1.1143736      313.61983      248.78365     -13884.345    
   8200000   1.1143736      294.89854     -407.24648     -13918.414    
   8300000   1.1143736      296.26255      683.06811     -13894.826    
   8400000   1.1143736      292.27579     -21.359748     -13908.117    
   8500000   1.1143736      297.84472     -610.82216     -13910.3      
   8600000   1.1143736      312.41988      62.111724     -13872.35     
   8700000   1.1143736      299.39426      439.40136     -13941.65     
   8800000   1.1143736      305.79059      384.07109     -13885.747    
   8900000   1.1143736      295.41207     -281.56821     -13914.967    
   9000000   1.1143736      295.80543      39.573293     -13939.988    
Loop time of 5052.39 on 12 procs for 1000000 steps with 1608 atoms

Performance: 17.101 ns/day, 1.403 hours/ns, 197.926 timesteps/s
94.1% CPU use with 12 MPI tasks x no OpenMP threads

MPI task timing breakdown:
Section |  min time  |  avg time  |  max time  |%varavg| %total
---------------------------------------------------------------
Pair    | 2952.5     | 3143.7     | 3285.4     | 221.5 | 62.22
Bond    | 13.592     | 14.117     | 14.38      |   5.2 |  0.28
Kspace  | 1210.1     | 1352.1     | 1543       | 338.8 | 26.76
Neigh   | 85.424     | 85.469     | 85.509     |   0.3 |  1.69
Comm    | 141.09     | 142.98     | 144.67     |   7.2 |  2.83
Output  | 0.35584    | 0.35658    | 0.35736    |   0.1 |  0.01
Modify  | 293.52     | 294.05     | 294.89     |   2.4 |  5.82
Other   |            | 19.66      |            |       |  0.39

Nlocal:            134 ave         144 max         117 min
Histogram: 1 1 0 0 2 0 0 4 3 1
Nghost:        4321.17 ave        4365 max        4257 min
Histogram: 1 0 0 2 1 4 0 0 2 2
Neighs:        49962.2 ave       55722 max       41110 min
Histogram: 1 0 1 1 1 2 0 3 0 3

Total # of neighbors = 599546
Ave neighs/atom = 372.85199
Ave special neighs/atom = 1.8656716
Neighbor list builds = 40422
Dangerous builds = 0
shell bash copy_files.sh dt_${tstep} 09.00Mstep
shell bash copy_files.sh dt_1 09.00Mstep

run ${Nrun2}
run 1000000
PPPM initialization ...
  extracting TIP4P info from pair style
  using 12-bit tables for long-range coulomb (../kspace.cpp:342)
  G vector (1/distance) = 0.31041357
  grid = 24 24 24
  stencil order = 5
  estimated absolute RMS force accuracy = 0.0037561872
  estimated relative force accuracy = 1.1311646e-05
  using double precision KISS FFT
  3d grid and FFT values/proc = 5415 1152
Generated 0 of 6 mixed pair_coeff terms from arithmetic mixing rule
Per MPI rank memory allocation (min/avg/max) = 14.4 | 14.41 | 14.41 Mbytes
   Step        Density          Temp          Press          TotEng    
   9000000   1.1143736      295.80543      39.498929     -13939.988    
   9100000   1.1143736      291.67231      626.87584     -13964.401    
   9200000   1.1143736      311.44464     -39.194086     -13835.927    
   9300000   1.1143736      293.09347     -561.57136     -14000.238    
   9400000   1.1143736      319.43589     -83.682954     -13857.117    
   9500000   1.1143736      300.23817      621.50768     -13881.19     
   9600000   1.1143736      309.51726      149.34005     -13900.2      
   9700000   1.1143736      322.61617      444.18023     -13890.585    
   9800000   1.1143736      292.64655      584.6075      -13955.725    
   9900000   1.1143736      304.98999      105.37105     -13886.517    
  10000000   1.1143736      289.81177      1611.0125     -13912.244    
Loop time of 5056.64 on 12 procs for 1000000 steps with 1608 atoms

Performance: 17.086 ns/day, 1.405 hours/ns, 197.760 timesteps/s
94.0% CPU use with 12 MPI tasks x no OpenMP threads

MPI task timing breakdown:
Section |  min time  |  avg time  |  max time  |%varavg| %total
---------------------------------------------------------------
Pair    | 2941.6     | 3146.3     | 3297       | 234.3 | 62.22
Bond    | 13.658     | 14.059     | 14.316     |   5.2 |  0.28
Kspace  | 1201.1     | 1353.2     | 1557.8     | 358.3 | 26.76
Neigh   | 85.626     | 85.656     | 85.698     |   0.2 |  1.69
Comm    | 141.14     | 143.02     | 144.52     |   7.1 |  2.83
Output  | 0.35585    | 0.35688    | 0.35835    |   0.1 |  0.01
Modify  | 293.8      | 294.27     | 294.99     |   2.1 |  5.82
Other   |            | 19.73      |            |       |  0.39

Nlocal:            134 ave         144 max         123 min
Histogram: 1 0 1 3 2 0 1 2 1 1
Nghost:        4307.75 ave        4335 max        4271 min
Histogram: 1 0 2 0 1 2 2 1 1 2
Neighs:        49947.8 ave       55045 max       45171 min
Histogram: 1 0 3 2 0 2 1 0 2 1

Total # of neighbors = 599374
Ave neighs/atom = 372.74502
Ave special neighs/atom = 1.8656716
Neighbor list builds = 40436
Dangerous builds = 0
shell bash copy_files.sh dt_${tstep} 10.00Mstep
shell bash copy_files.sh dt_1 10.00Mstep

run ${Nrun3}
run 2500000
PPPM initialization ...
  extracting TIP4P info from pair style
  using 12-bit tables for long-range coulomb (../kspace.cpp:342)
  G vector (1/distance) = 0.31041357
  grid = 24 24 24
  stencil order = 5
  estimated absolute RMS force accuracy = 0.0037561872
  estimated relative force accuracy = 1.1311646e-05
  using double precision KISS FFT
  3d grid and FFT values/proc = 5415 1152
Generated 0 of 6 mixed pair_coeff terms from arithmetic mixing rule
Per MPI rank memory allocation (min/avg/max) = 14.4 | 14.41 | 14.41 Mbytes
   Step        Density          Temp          Press          TotEng    
  10000000   1.1143736      289.81177      1610.8208     -13912.244    
  10100000   1.1143736      310.08995      49.407007     -13838.238    
  10200000   1.1143736      288.2108      -950.27657     -13949.654    
  10300000   1.1143736      285.63154      346.96544     -13994.829    
  10400000   1.1143736      300.17258     -377.1721      -13914.319    
  10500000   1.1143736      302.40149      368.34984     -13895.632    
  10600000   1.1143736      295.71556     -453.60592     -13996.562    
  10700000   1.1143736      307.13101      261.63085     -13845.536    
  10800000   1.1143736      300.4042       503.63108     -13934.947    
  10900000   1.1143736      279.3374       128.77682     -13958.926    
  11000000   1.1143736      303.11488      1421.1699     -13915.907    
  11100000   1.1143736      291.7629       97.368892     -13956.483    
  11200000   1.1143736      298.93651      273.08253     -13976.838    
  11300000   1.1143736      301.8634      -128.87507     -13954.653    
  11400000   1.1143736      289.65906     -851.63519     -13955.637    
  11500000   1.1143736      304.48935      704.13085     -13920        
  11600000   1.1143736      294.57338     -27.919695     -13987.574    
  11700000   1.1143736      296.79994      36.50948      -13940.888    
  11800000   1.1143736      305.82439      919.65065     -13871.767    
  11900000   1.1143736      299.77377      82.659147     -13952.769    
  12000000   1.1143736      313.75968     -516.09146     -13870.297    
  12100000   1.1143736      312.75724     -1212.0488     -13875.24     
  12200000   1.1143736      285.87229     -133.68719     -14017.453    
  12300000   1.1143736      295.91231     -174.94792     -13924.747    
  12400000   1.1143736      299.54294      462.34639     -13923.67     
  12500000   1.1143736      300.11082     -184.14902     -13945.605    
Loop time of 12702.8 on 12 procs for 2500000 steps with 1608 atoms

Performance: 17.004 ns/day, 1.411 hours/ns, 196.808 timesteps/s
93.8% CPU use with 12 MPI tasks x no OpenMP threads

MPI task timing breakdown:
Section |  min time  |  avg time  |  max time  |%varavg| %total
---------------------------------------------------------------
Pair    | 7309.3     | 7870.8     | 8242.6     | 391.2 | 61.96
Bond    | 34.345     | 35.243     | 35.688     |   6.1 |  0.28
Kspace  | 3069.8     | 3439.5     | 4000.5     | 593.0 | 27.08
Neigh   | 214.03     | 214.14     | 214.23     |   0.4 |  1.69
Comm    | 353.15     | 357.54     | 361.2      |  10.7 |  2.81
Output  | 0.88856    | 0.89067    | 0.89464    |   0.2 |  0.01
Modify  | 734.49     | 735.46     | 737.29     |   3.1 |  5.79
Other   |            | 49.1       |            |       |  0.39

Nlocal:            134 ave         144 max         125 min
Histogram: 3 0 1 1 1 1 2 1 1 1
Nghost:        4305.58 ave        4349 max        4269 min
Histogram: 2 1 2 1 1 0 1 2 1 1
Neighs:        49923.8 ave       58094 max       44614 min
Histogram: 2 1 0 4 3 0 0 1 0 1

Total # of neighbors = 599086
Ave neighs/atom = 372.56592
Ave special neighs/atom = 1.8656716
Neighbor list builds = 100920
Dangerous builds = 0
shell bash copy_files.sh dt_${tstep} 12.50Mstep
shell bash copy_files.sh dt_1 12.50Mstep

run ${Nrun3}
run 2500000
PPPM initialization ...
  extracting TIP4P info from pair style
  using 12-bit tables for long-range coulomb (../kspace.cpp:342)
  G vector (1/distance) = 0.31041357
  grid = 24 24 24
  stencil order = 5
  estimated absolute RMS force accuracy = 0.0037561872
  estimated relative force accuracy = 1.1311646e-05
  using double precision KISS FFT
  3d grid and FFT values/proc = 5415 1152
Generated 0 of 6 mixed pair_coeff terms from arithmetic mixing rule
Per MPI rank memory allocation (min/avg/max) = 14.4 | 14.41 | 14.41 Mbytes
   Step        Density          Temp          Press          TotEng    
  12500000   1.1143736      300.11082     -184.13428     -13945.605    
  12600000   1.1143736      297.67487      230.19648     -13933.191    
  12700000   1.1143736      300.50658     -237.09532     -13921.272    
  12800000   1.1143736      303.42603      1981.4517     -13885.555    
  12900000   1.1143736      294.81513     -98.362968     -13937.208    
  13000000   1.1143736      301.95687     -445.06436     -13908.073    
  13100000   1.1143736      298.64344      324.33498     -13883.117    
  13200000   1.1143736      286.00786     -262.74924     -14015.53     
  13300000   1.1143736      293.53493      596.00492     -13926.659    
  13400000   1.1143736      290.7354       73.575921     -13943.548    
  13500000   1.1143736      281.8193       580.98305     -14004.959    
  13600000   1.1143736      303.38895      364.96988     -13885.318    
  13700000   1.1143736      292.25636     -1191.0418     -13933.637    
  13800000   1.1143736      309.68273      537.96601     -13885.457    
  13900000   1.1143736      290.06885      1045.2273     -13943.349    
  14000000   1.1143736      292.13118     -620.04481     -13931.598    
  14100000   1.1143736      284.3692      -590.23111     -13964.686    
  14200000   1.1143736      304.11517     -51.332023     -13906.65     
  14300000   1.1143736      289.40735     -544.9985      -13925.614    
  14400000   1.1143736      295.97853     -474.51795     -13927.534    
  14500000   1.1143736      296.70922     -844.99038     -13916.213    
  14600000   1.1143736      291.12164     -722.07972     -13998.389    
  14700000   1.1143736      310.33109      670.77015     -13926.82     
  14800000   1.1143736      304.71304      482.0565      -13914.663    
  14900000   1.1143736      310.21177      819.58865     -13883.874    
  15000000   1.1143736      293.64289      17.818645     -13929.369    
Loop time of 12705.4 on 12 procs for 2500000 steps with 1608 atoms

Performance: 17.001 ns/day, 1.412 hours/ns, 196.766 timesteps/s
93.9% CPU use with 12 MPI tasks x no OpenMP threads

MPI task timing breakdown:
Section |  min time  |  avg time  |  max time  |%varavg| %total
---------------------------------------------------------------
Pair    | 7265.8     | 7889.6     | 8282.6     | 411.9 | 62.10
Bond    | 34.179     | 35.089     | 35.683     |   7.0 |  0.28
Kspace  | 3031.3     | 3425.2     | 4049       | 626.6 | 26.96
Neigh   | 213.39     | 213.5      | 213.58     |   0.4 |  1.68
Comm    | 353.3      | 357.44     | 360.97     |  10.0 |  2.81
Output  | 0.88895    | 0.89025    | 0.89395    |   0.1 |  0.01
Modify  | 733.51     | 734.62     | 736.42     |   3.1 |  5.78
Other   |            | 49.14      |            |       |  0.39

Nlocal:            134 ave         143 max         114 min
Histogram: 1 0 0 1 0 2 1 3 1 3
Nghost:        4298.83 ave        4341 max        4273 min
Histogram: 3 0 0 3 3 2 0 0 0 1
Neighs:        49950.2 ave       56284 max       40873 min
Histogram: 1 0 0 1 2 1 3 2 1 1

Total # of neighbors = 599403
Ave neighs/atom = 372.76306
Ave special neighs/atom = 1.8656716
Neighbor list builds = 100833
Dangerous builds = 0
shell bash copy_files.sh dt_${tstep} 15.00Mstep
shell bash copy_files.sh dt_1 15.00Mstep

run ${Nrun3}
run 2500000
PPPM initialization ...
  extracting TIP4P info from pair style
  using 12-bit tables for long-range coulomb (../kspace.cpp:342)
  G vector (1/distance) = 0.31041357
  grid = 24 24 24
  stencil order = 5
  estimated absolute RMS force accuracy = 0.0037561872
  estimated relative force accuracy = 1.1311646e-05
  using double precision KISS FFT
  3d grid and FFT values/proc = 5415 1152
Generated 0 of 6 mixed pair_coeff terms from arithmetic mixing rule
Per MPI rank memory allocation (min/avg/max) = 14.4 | 14.41 | 14.41 Mbytes
   Step        Density          Temp          Press          TotEng    
  15000000   1.1143736      293.64289      17.8252       -13929.369    
  15100000   1.1143736      300.56076     -218.82245     -13898.215    
  15200000   1.1143736      302.69504     -262.83158     -13908.332    
  15300000   1.1143736      294.95057     -617.135       -13946.706    
  15400000   1.1143736      298.1131      -858.88773     -13917.176    
  15500000   1.1143736      303.01023      1006.4962     -13888.128    
  15600000   1.1143736      300.68074     -58.807345     -13884.87     
  15700000   1.1143736      296.01721     -482.57315     -13866.419    
  15800000   1.1143736      292.85532     -727.82725     -13891.205    
  15900000   1.1143736      297.72743      617.74201     -13899.389    
  16000000   1.1143736      289.50757      90.261231     -13933.081    
  16100000   1.1143736      295.5433       837.77181     -13919.032    
  16200000   1.1143736      301.02474      971.65423     -13934.407    
  16300000   1.1143736      297.27531     -1118.4635     -13976.025    
  16400000   1.1143736      298.04212      663.07037     -13893.333    
  16500000   1.1143736      293.99166      215.78435     -13944.033    
  16600000   1.1143736      297.86325      620.82178     -13943.936    
  16700000   1.1143736      281.27482      203.45292     -13937.468    
  16800000   1.1143736      298.12618     -146.34973     -13919.243    
  16900000   1.1143736      294.23143      164.78877     -13902.511    
  17000000   1.1143736      298.20938     -907.42844     -13909.917    
  17100000   1.1143736      292.04219      183.91295     -13873.593    
  17200000   1.1143736      310.83835      949.9009      -13901.851    
  17300000   1.1143736      289.24825      1183.1991     -13995.432    
  17400000   1.1143736      306.70395     -628.43        -13903.802    
  17500000   1.1143736      301.98628     -365.87102     -13889.044    
Loop time of 12781.4 on 12 procs for 2500000 steps with 1608 atoms

Performance: 16.900 ns/day, 1.420 hours/ns, 195.597 timesteps/s
93.6% CPU use with 12 MPI tasks x no OpenMP threads

MPI task timing breakdown:
Section |  min time  |  avg time  |  max time  |%varavg| %total
---------------------------------------------------------------
Pair    | 7273.1     | 7887.3     | 8457.9     | 454.7 | 61.71
Bond    | 33.999     | 34.966     | 35.527     |   6.9 |  0.27
Kspace  | 2930.5     | 3502       | 4117.4     | 683.8 | 27.40
Neigh   | 214.06     | 214.16     | 214.27     |   0.4 |  1.68
Comm    | 353.12     | 357.4      | 360.94     |  10.4 |  2.80
Output  | 0.88771    | 0.89027    | 0.89494    |   0.2 |  0.01
Modify  | 734.26     | 735.28     | 736.91     |   2.9 |  5.75
Other   |            | 49.32      |            |       |  0.39

Nlocal:            134 ave         144 max         119 min
Histogram: 1 0 1 1 0 1 4 1 1 2
Nghost:        4322.25 ave        4358 max        4277 min
Histogram: 1 0 2 0 1 2 2 2 0 2
Neighs:        49934.8 ave       55332 max       44943 min
Histogram: 1 1 3 0 0 3 1 2 0 1

Total # of neighbors = 599218
Ave neighs/atom = 372.64801
Ave special neighs/atom = 1.8656716
Neighbor list builds = 100934
Dangerous builds = 0
shell bash copy_files.sh dt_${tstep} 17.50Mstep
shell bash copy_files.sh dt_1 17.50Mstep

run ${Nrun3}
run 2500000
PPPM initialization ...
  extracting TIP4P info from pair style
  using 12-bit tables for long-range coulomb (../kspace.cpp:342)
  G vector (1/distance) = 0.31041357
  grid = 24 24 24
  stencil order = 5
  estimated absolute RMS force accuracy = 0.0037561872
  estimated relative force accuracy = 1.1311646e-05
  using double precision KISS FFT
  3d grid and FFT values/proc = 5415 1152
Generated 0 of 6 mixed pair_coeff terms from arithmetic mixing rule
Per MPI rank memory allocation (min/avg/max) = 14.4 | 14.41 | 14.41 Mbytes
   Step        Density          Temp          Press          TotEng    
  17500000   1.1143736      301.98628     -365.87607     -13889.044    
  17600000   1.1143736      296.03715      336.86807     -13956.13     
  17700000   1.1143736      294.78456      321.51756     -13933.933    
  17800000   1.1143736      299.15593      664.96426     -13875.726    
  17900000   1.1143736      301.68851     -87.543181     -13909.728    
  18000000   1.1143736      291.26661      802.78533     -13945.664    
  18100000   1.1143736      296.01679     -1146.1002     -13955.999    
  18200000   1.1143736      302.54668     -285.56836     -13947.101    
  18300000   1.1143736      288.81414      143.80492     -13969.838    
  18400000   1.1143736      292.06796      510.78681     -13978.361    
  18500000   1.1143736      295.41465      325.71123     -13959.592    
  18600000   1.1143736      288.76664      973.60783     -13942.992    
  18700000   1.1143736      291.22159      502.20072     -13924.23     
  18800000   1.1143736      286.75112      1198.6401     -13992.995    
  18900000   1.1143736      297.42041     -228.36317     -13935.801    
  19000000   1.1143736      295.6537      -345.09315     -13963.269    
  19100000   1.1143736      289.20665     -95.167288     -13969.745    
  19200000   1.1143736      295.78493     -875.45095     -13945.768    
  19300000   1.1143736      314.95246      188.17044     -13864.98     
  19400000   1.1143736      307.47646     -428.50034     -13936.143    
  19500000   1.1143736      292.95487     -476.37373     -13936.337    
  19600000   1.1143736      290.26745      688.31627     -13912.988    
  19700000   1.1143736      303.35756     -419.62825     -13922.898    
  19800000   1.1143736      295.62744     -646.16583     -13993.802    
  19900000   1.1143736      289.64228      229.36601     -13913.371    
  20000000   1.1143736      301.04228     -813.23594     -13917.265    
Loop time of 12707.5 on 12 procs for 2500000 steps with 1608 atoms

Performance: 16.998 ns/day, 1.412 hours/ns, 196.733 timesteps/s
93.8% CPU use with 12 MPI tasks x no OpenMP threads

MPI task timing breakdown:
Section |  min time  |  avg time  |  max time  |%varavg| %total
---------------------------------------------------------------
Pair    | 7303.5     | 7869.5     | 8427.7     | 418.2 | 61.93
Bond    | 34.172     | 35.038     | 35.718     |   6.4 |  0.28
Kspace  | 2887.6     | 3446.2     | 4011.4     | 633.2 | 27.12
Neigh   | 213.78     | 213.89     | 213.98     |   0.4 |  1.68
Comm    | 352.94     | 357.5      | 361.53     |  11.4 |  2.81
Output  | 0.88862    | 0.89128    | 0.89485    |   0.2 |  0.01
Modify  | 734.32     | 735.36     | 737.33     |   3.4 |  5.79
Other   |            | 49.22      |            |       |  0.39

Nlocal:            134 ave         145 max         124 min
Histogram: 2 0 0 4 0 2 2 0 0 2
Nghost:        4295.67 ave        4351 max        4230 min
Histogram: 2 1 0 1 1 1 1 2 1 2
Neighs:        49889.5 ave       55666 max       42274 min
Histogram: 1 1 0 2 0 3 1 0 2 2

Total # of neighbors = 598674
Ave neighs/atom = 372.3097
Ave special neighs/atom = 1.8656716
Neighbor list builds = 100929
Dangerous builds = 0
shell bash copy_files.sh dt_${tstep} 20.00Mstep
shell bash copy_files.sh dt_1 20.00Mstep

run ${Nrun4}
run 5000000
PPPM initialization ...
  extracting TIP4P info from pair style
  using 12-bit tables for long-range coulomb (../kspace.cpp:342)
  G vector (1/distance) = 0.31041357
  grid = 24 24 24
  stencil order = 5
  estimated absolute RMS force accuracy = 0.0037561872
  estimated relative force accuracy = 1.1311646e-05
  using double precision KISS FFT
  3d grid and FFT values/proc = 5415 1152
Generated 0 of 6 mixed pair_coeff terms from arithmetic mixing rule
Per MPI rank memory allocation (min/avg/max) = 14.4 | 14.41 | 14.41 Mbytes
   Step        Density          Temp          Press          TotEng    
  20000000   1.1143736      301.04228     -812.8997      -13917.265    
  20100000   1.1143736      297.3986       605.83539     -13943.13     
  20200000   1.1143736      299.53985      449.3052      -13902.129    
  20300000   1.1143736      296.49764     -553.84218     -13909.32     
  20400000   1.1143736      295.93958      94.995263     -13920.464    
  20500000   1.1143736      308.33221     -258.14026     -13933.246    
  20600000   1.1143736      310.20495      317.04137     -13887.972    
  20700000   1.1143736      295.08541     -321.80363     -13864.084    
  20800000   1.1143736      304.83584      5.4856622     -13913.946    
  20900000   1.1143736      308.72822      237.26053     -13846.511    
  21000000   1.1143736      287.72837      175.69451     -13880.977    
  21100000   1.1143736      311.22495      138.72476     -13894.51     
  21200000   1.1143736      293.44139     -206.79116     -13932.909    
  21300000   1.1143736      290.51787      21.091308     -13954.267    
  21400000   1.1143736      292.14527     -256.84897     -13974.897    
  21500000   1.1143736      308.44245      532.08729     -13842.34     
  21600000   1.1143736      303.66507      82.096267     -13975.359    
  21700000   1.1143736      294.70293     -652.68159     -14021.473    
  21800000   1.1143736      313.9178       256.77354     -13899.615    
  21900000   1.1143736      307.98041      613.12464     -13860.451    
  22000000   1.1143736      309.50525      119.35615     -13877.105    
  22100000   1.1143736      301.81219      1317.4086     -13878.421    
  22200000   1.1143736      301.58189     -955.0806      -13928.989    
  22300000   1.1143736      291.09138     -470.98695     -13952.929    
  22400000   1.1143736      280.82358     -436.88819     -13962.434    
  22500000   1.1143736      305.91879     -1672.8183     -13938.827    
  22600000   1.1143736      293.64366      154.50946     -13942.648    
  22700000   1.1143736      301.64483      707.0467      -13869.804    
  22800000   1.1143736      300.02943      624.36973     -13910.734    
  22900000   1.1143736      299.80772     -210.03359     -13936.742    
  23000000   1.1143736      296.56956     -562.24852     -13884.826    
  23100000   1.1143736      303.94158      164.66252     -13913.378    
  23200000   1.1143736      292.6608      -477.00876     -13965.906    
  23300000   1.1143736      300.42689      249.12048     -13936.228    
  23400000   1.1143736      308.96004      75.899847     -13885.595    
  23500000   1.1143736      302.08078     -288.94387     -13879.296    
  23600000   1.1143736      296.78396      122.84029     -13958.367    
  23700000   1.1143736      297.87288      56.583893     -13989.569    
  23800000   1.1143736      297.12169      1147.6623     -13964.442    
  23900000   1.1143736      301.41263      300.16462     -13965.194    
  24000000   1.1143736      290.84554      524.24168     -13985.173    
  24100000   1.1143736      302.18858     -281.79432     -13952.475    
  24200000   1.1143736      294.79816      187.41751     -13923.466    
  24300000   1.1143736      293.47892     -526.0283      -13919.837    
  24400000   1.1143736      290.98876     -724.1496      -14036.3      
  24500000   1.1143736      312.23734     -333.38714     -13910.264    
  24600000   1.1143736      307.47044     -380.22824     -13932.427    
  24700000   1.1143736      302.19644     -293.42541     -13890.711    
  24800000   1.1143736      302.19421     -937.98566     -13913.204    
  24900000   1.1143736      297.62242      401.92764     -13896.247    
  25000000   1.1143736      296.53187     -1220.7079     -13914.638    
Loop time of 25383.4 on 12 procs for 5000000 steps with 1608 atoms

Performance: 17.019 ns/day, 1.410 hours/ns, 196.979 timesteps/s
93.8% CPU use with 12 MPI tasks x no OpenMP threads

MPI task timing breakdown:
Section |  min time  |  avg time  |  max time  |%varavg| %total
---------------------------------------------------------------
Pair    | 14674      | 15712      | 16590      | 557.7 | 61.90
Bond    | 68.394     | 70.343     | 71.595     |   9.1 |  0.28
Kspace  | 6007.6     | 6887.6     | 7927       | 844.1 | 27.13
Neigh   | 427.28     | 427.53     | 427.7      |   0.6 |  1.68
Comm    | 706.64     | 714.65     | 721.89     |  14.4 |  2.82
Output  | 1.7843     | 1.7884     | 1.7952     |   0.2 |  0.01
Modify  | 1469.4     | 1471.4     | 1475.2     |   4.4 |  5.80
Other   |            | 98.63      |            |       |  0.39

Nlocal:            134 ave         145 max         120 min
Histogram: 1 0 0 1 3 1 3 1 1 1
Nghost:        4305.08 ave        4358 max        4261 min
Histogram: 1 0 1 3 4 1 0 1 0 1
Neighs:        49917.2 ave       56502 max       45086 min
Histogram: 2 2 3 0 0 0 1 3 0 1

Total # of neighbors = 599006
Ave neighs/atom = 372.51617
Ave special neighs/atom = 1.8656716
Neighbor list builds = 201565
Dangerous builds = 0
shell bash copy_files.sh dt_${tstep} 25.00Mstep
shell bash copy_files.sh dt_1 25.00Mstep

run ${Nrun4}
run 5000000
PPPM initialization ...
  extracting TIP4P info from pair style
  using 12-bit tables for long-range coulomb (../kspace.cpp:342)
  G vector (1/distance) = 0.31041357
  grid = 24 24 24
  stencil order = 5
  estimated absolute RMS force accuracy = 0.0037561872
  estimated relative force accuracy = 1.1311646e-05
  using double precision KISS FFT
  3d grid and FFT values/proc = 5415 1152
Generated 0 of 6 mixed pair_coeff terms from arithmetic mixing rule
Per MPI rank memory allocation (min/avg/max) = 14.4 | 14.41 | 14.41 Mbytes
   Step        Density          Temp          Press          TotEng    
  25000000   1.1143736      296.53187     -1220.4834     -13914.638    
  25100000   1.1143736      308.07261      240.16742     -13845.14     
  25200000   1.1143736      299.8361       518.54016     -13850.608    
  25300000   1.1143736      297.95878     -443.83451     -13918.295    
  25400000   1.1143736      294.15624      313.39035     -13866.526    
  25500000   1.1143736      292.34755     -519.39587     -13940.875    
  25600000   1.1143736      311.79893      541.77881     -13855.457    
  25700000   1.1143736      286.06448      409.88093     -13882.306    
  25800000   1.1143736      307.98939     -945.92784     -13973.061    
  25900000   1.1143736      290.84268      683.96554     -13904.904    
  26000000   1.1143736      297.27148      260.43592     -13895.401    
  26100000   1.1143736      296.04401      172.08984     -13908.442    
  26200000   1.1143736      304.39717     -1055.6971     -13912.878    
  26300000   1.1143736      292.151        56.34603      -13943.579    
  26400000   1.1143736      294.54727     -800.80277     -13904.618    
  26500000   1.1143736      291.58477     -550.61574     -13953.431    
  26600000   1.1143736      284.91723     -846.1847      -13951.454    
  26700000   1.1143736      293.85912     -330.3279      -14011.783    
  26800000   1.1143736      292.44908     -367.25544     -13905.246    
  26900000   1.1143736      297.90277      462.03483     -13890.775    
  27000000   1.1143736      299.72998      41.074457     -13932.048    
  27100000   1.1143736      298.20339     -286.69478     -13868.499    
  27200000   1.1143736      304.94477      459.68081     -13930.623    
  27300000   1.1143736      308.81345     -298.47726     -13870.034    
  27400000   1.1143736      299.35817      462.28251     -13906.457    
  27500000   1.1143736      310.34244     -842.96864     -13877.617    
  27600000   1.1143736      308.65962      647.72686     -13922.576    
  27700000   1.1143736      294.93126     -425.44495     -13924.94     
  27800000   1.1143736      297.45516      1278.1103     -13897.541    
  27900000   1.1143736      304.2448      -520.0296      -13948.07     
  28000000   1.1143736      297.79201      538.75349     -13859.284    
  28100000   1.1143736      303.89775     -540.9666      -13894.76     
  28200000   1.1143736      297.77969      273.46811     -13908.024    
  28300000   1.1143736      291.17371     -311.99528     -13983.722    
  28400000   1.1143736      294.68784      150.62422     -13885.045    
  28500000   1.1143736      302.76996      554.14863     -13875.958    
  28600000   1.1143736      290.43668      791.85181     -13942.552    
  28700000   1.1143736      293.91559      1045.3419     -14007.063    
  28800000   1.1143736      293.08766      485.77788     -13874.47     
  28900000   1.1143736      299.48261      640.49481     -13898.703    
  29000000   1.1143736      301.46373      161.2479      -13900.785    
  29100000   1.1143736      297.85371     -1142.1213     -13926.078    
  29200000   1.1143736      291.13366      444.36765     -13997.015    
  29300000   1.1143736      293.11119      300.27061     -13931.634    
  29400000   1.1143736      306.4741       1346.564      -13960.294    
  29500000   1.1143736      307.16364     -333.47789     -13921.726    
  29600000   1.1143736      291.62699      853.90805     -13942.657    
  29700000   1.1143736      297.57669     -226.38976     -13931.894    
  29800000   1.1143736      292.89045      557.23917     -13923.972    
  29900000   1.1143736      302.1216       1538.0628     -13882.391    
  30000000   1.1143736      303.56349      560.97626     -13888.008    
Loop time of 25439.1 on 12 procs for 5000000 steps with 1608 atoms

Performance: 16.982 ns/day, 1.413 hours/ns, 196.548 timesteps/s
93.8% CPU use with 12 MPI tasks x no OpenMP threads

MPI task timing breakdown:
Section |  min time  |  avg time  |  max time  |%varavg| %total
---------------------------------------------------------------
Pair    | 14616      | 15751      | 16874      | 576.1 | 61.92
Bond    | 68.327     | 70.061     | 71.055     |   9.3 |  0.28
Kspace  | 5780.2     | 6904.6     | 8041.9     | 872.0 | 27.14
Neigh   | 428.1      | 428.3      | 428.52     |   0.5 |  1.68
Comm    | 706.39     | 714.68     | 722        |  14.5 |  2.81
Output  | 1.7795     | 1.7814     | 1.7892     |   0.2 |  0.01
Modify  | 1467.9     | 1469.8     | 1473.3     |   4.1 |  5.78
Other   |            | 98.47      |            |       |  0.39

Nlocal:            134 ave         141 max         123 min
Histogram: 1 0 2 2 0 0 1 1 2 3
Nghost:        4297.08 ave        4342 max        4234 min
Histogram: 1 2 0 2 0 1 0 1 0 5
Neighs:        49946.2 ave       54679 max       42573 min
Histogram: 1 0 0 0 3 1 2 2 2 1

Total # of neighbors = 599354
Ave neighs/atom = 372.73259
Ave special neighs/atom = 1.8656716
Neighbor list builds = 201889
Dangerous builds = 0
shell bash copy_files.sh dt_${tstep} 30.00Mstep
shell bash copy_files.sh dt_1 30.00Mstep

run ${Nrun4}
run 5000000
PPPM initialization ...
  extracting TIP4P info from pair style
  using 12-bit tables for long-range coulomb (../kspace.cpp:342)
  G vector (1/distance) = 0.31041357
  grid = 24 24 24
  stencil order = 5
  estimated absolute RMS force accuracy = 0.0037561872
  estimated relative force accuracy = 1.1311646e-05
  using double precision KISS FFT
  3d grid and FFT values/proc = 5415 1152
Generated 0 of 6 mixed pair_coeff terms from arithmetic mixing rule
Per MPI rank memory allocation (min/avg/max) = 14.4 | 14.41 | 14.41 Mbytes
   Step        Density          Temp          Press          TotEng    
  30000000   1.1143736      303.56349      560.88456     -13888.008    
  30100000   1.1143736      283.24398     -363.15806     -14076.932    
  30200000   1.1143736      301.36265      839.6644      -13914.434    
  30300000   1.1143736      287.87058      648.42467     -13962.689    
  30400000   1.1143736      302.33766      982.93493     -13947.123    
  30500000   1.1143736      290.0415      -247.39727     -13976.654    
  30600000   1.1143736      297.04504      6.0760462     -13937.72     
  30700000   1.1143736      296.55591     -1052.8758     -13952.841    
  30800000   1.1143736      302.22557     -727.517       -13891.956    
  30900000   1.1143736      308.45487      1841.3351     -13897.015    
  31000000   1.1143736      297.80479     -809.0678      -13992.562    
  31100000   1.1143736      302.92973     -320.18735     -13952.391    
  31200000   1.1143736      300.78138      426.66324     -13983.013    
  31300000   1.1143736      286.43246     -869.88757     -13972.204    
  31400000   1.1143736      296.42294     -675.44551     -13948.136    
  31500000   1.1143736      305.53699     -825.65647     -13921.525    
  31600000   1.1143736      297.97962      82.582815     -13917.808    
  31700000   1.1143736      297.16305     -260.69554     -13873.24     
  31800000   1.1143736      307.05685      203.2461      -13917.094    
  31900000   1.1143736      307.09651     -1608.2367     -13859.72     
  32000000   1.1143736      306.59434     -817.79795     -13896.256    
  32100000   1.1143736      298.15114     -515.14474     -13995.719    
  32200000   1.1143736      287.96104     -75.841775     -13931.92     
  32300000   1.1143736      299.53841      560.49471     -13890.591    
  32400000   1.1143736      300.27051     -583.39329     -13921.785    
  32500000   1.1143736      302.81571      278.58743     -13897.97     
  32600000   1.1143736      300.21182      988.73348     -13902.562    
  32700000   1.1143736      307.21922      525.6532      -13850.705    
  32800000   1.1143736      287.48536      247.95737     -13942.806    
  32900000   1.1143736      289.45474      599.72237     -13973.38     
  33000000   1.1143736      293.39638      294.21909     -13945.196    
  33100000   1.1143736      286.11673     -244.72592     -14026.193    
  33200000   1.1143736      293.20971      580.13222     -13938.502    
  33300000   1.1143736      292.86621     -792.01771     -13934.077    
  33400000   1.1143736      310.20008     -373.84483     -13885.449    
  33500000   1.1143736      289.70325      648.86234     -13972.187    
  33600000   1.1143736      311.86059      1241.3323     -13788.805    
  33700000   1.1143736      300.17494      538.71077     -13956.864    
  33800000   1.1143736      290.32797      894.23013     -13990.422    
  33900000   1.1143736      292.38638     -299.04992     -13952.46     
  34000000   1.1143736      293.46301      254.05472     -13962.214    
  34100000   1.1143736      307.72766     -165.53739     -13939.499    
  34200000   1.1143736      299.2414       139.56474     -13944.302    
  34300000   1.1143736      295.41346      326.04463     -13939.828    
  34400000   1.1143736      308.22736     -504.10335     -13949.619    
  34500000   1.1143736      298.85163      1348.0447     -13894.213    
  34600000   1.1143736      307.01077     -22.297976     -13913.927    
  34700000   1.1143736      297.97831      540.16478     -13882.405    
  34800000   1.1143736      302.48522      26.779544     -13849.518    
  34900000   1.1143736      291.43765      1175.7157     -13913.17     
  35000000   1.1143736      292.5546       347.35282     -13952.736    
Loop time of 25388.4 on 12 procs for 5000000 steps with 1608 atoms

Performance: 17.016 ns/day, 1.410 hours/ns, 196.940 timesteps/s
93.8% CPU use with 12 MPI tasks x no OpenMP threads

MPI task timing breakdown:
Section |  min time  |  avg time  |  max time  |%varavg| %total
---------------------------------------------------------------
Pair    | 14617      | 15717      | 16633      | 556.2 | 61.91
Bond    | 68.478     | 70.262     | 71.295     |   9.7 |  0.28
Kspace  | 5970.4     | 6886.8     | 7986       | 842.4 | 27.13
Neigh   | 427.77     | 427.99     | 428.17     |   0.5 |  1.69
Comm    | 706.29     | 714.91     | 723.39     |  16.4 |  2.82
Output  | 1.7751     | 1.7801     | 1.7866     |   0.2 |  0.01
Modify  | 1468.6     | 1470.7     | 1474.5     |   4.6 |  5.79
Other   |            | 98.5       |            |       |  0.39

Nlocal:            134 ave         142 max         123 min
Histogram: 1 0 1 1 2 0 3 2 0 2
Nghost:        4304.33 ave        4348 max        4256 min
Histogram: 1 0 3 2 1 0 0 1 2 2
Neighs:        49903.8 ave       57974 max       42747 min
Histogram: 2 0 1 2 1 2 3 0 0 1

Total # of neighbors = 598845
Ave neighs/atom = 372.41604
Ave special neighs/atom = 1.8656716
Neighbor list builds = 201779
Dangerous builds = 0
shell bash copy_files.sh dt_${tstep} 35.00Mstep
shell bash copy_files.sh dt_1 35.00Mstep

run ${Nrun4}
run 5000000
PPPM initialization ...
  extracting TIP4P info from pair style
  using 12-bit tables for long-range coulomb (../kspace.cpp:342)
  G vector (1/distance) = 0.31041357
  grid = 24 24 24
  stencil order = 5
  estimated absolute RMS force accuracy = 0.0037561872
  estimated relative force accuracy = 1.1311646e-05
  using double precision KISS FFT
  3d grid and FFT values/proc = 5415 1152
Generated 0 of 6 mixed pair_coeff terms from arithmetic mixing rule
Per MPI rank memory allocation (min/avg/max) = 14.4 | 14.41 | 14.41 Mbytes
   Step        Density          Temp          Press          TotEng    
  35000000   1.1143736      292.5546       347.31353     -13952.736    
  35100000   1.1143736      285.61278     -244.31294     -13887.239    
  35200000   1.1143736      298.32083     -85.632201     -13885.933    
  35300000   1.1143736      305.09872      7.1805431     -13854.483    
  35400000   1.1143736      301.17764      870.38402     -13877.707    
  35500000   1.1143736      288.555       -1287.4203     -13986.951    
  35600000   1.1143736      298.77052      21.120077     -13873.318    
  35700000   1.1143736      298.94828     -1356.3312     -13951.915    
  35800000   1.1143736      294.46571     -85.967327     -13955.872    
  35900000   1.1143736      284.05111      413.69315     -13973.741    
  36000000   1.1143736      295.9747      -178.61663     -13989.258    
  36100000   1.1143736      304.74477     -717.62032     -13968.724    
  36200000   1.1143736      299.62903      822.10395     -13866.885    
  36300000   1.1143736      302.27732      256.47334     -13971.474    
  36400000   1.1143736      300.0869       266.73294     -13904.443    
  36500000   1.1143736      296.04651     -62.763155     -13951.374    
  36600000   1.1143736      297.23183      446.14583     -13866.96     
  36700000   1.1143736      300.45044      101.17105     -13947.176    
  36800000   1.1143736      321.19434      334.22568     -13859.124    
  36900000   1.1143736      304.83219     -605.47419     -13934.411    
  37000000   1.1143736      303.01813      280.05082     -13935.99     
  37100000   1.1143736      314.22289     -73.773324     -13849.097    
  37200000   1.1143736      289.7377       127.00218     -13924.494    
  37300000   1.1143736      289.75133     -578.44902     -13951.735    
  37400000   1.1143736      306.36892      330.25574     -13935.165    
  37500000   1.1143736      307.78863     -363.07496     -13915.652    
  37600000   1.1143736      307.35405      1028.628      -13858.445    
  37700000   1.1143736      292.29966      633.22429     -13938.906    
  37800000   1.1143736      293.61254      1626.0508     -13899.277    
  37900000   1.1143736      289.06093     -307.51847     -13959.028    
  38000000   1.1143736      303.3922       544.67382     -13849.341    
  38100000   1.1143736      300.36654      88.69077      -13904.855    
  38200000   1.1143736      294.58956     -942.68164     -13911.477    
  38300000   1.1143736      294.8691       1141.9832     -13892.013    
  38400000   1.1143736      290.16348     -797.28254     -14011.171    
  38500000   1.1143736      297.48613     -531.47989     -13914.189    
  38600000   1.1143736      293.45216      177.24058     -13926.298    
  38700000   1.1143736      309.27455      885.73625     -13828.519    
  38800000   1.1143736      291.83676     -262.8198      -13978.329    
  38900000   1.1143736      301.2642      -326.98885     -14072.456    
  39000000   1.1143736      313.33076     -533.79228     -13871.672    
  39100000   1.1143736      298.39831     -514.75737     -14002.014    
  39200000   1.1143736      293.14107      93.210151     -13977.572    
  39300000   1.1143736      286.49924     -87.805372     -14036.967    
  39400000   1.1143736      306.65201      348.06822     -13885.981    
  39500000   1.1143736      285.55552     -133.32252     -13988.099    
  39600000   1.1143736      301.27694      166.48861     -13914.667    
  39700000   1.1143736      297.013       -458.30573     -13983.82     
  39800000   1.1143736      280.14251      832.33653     -13895.365    
  39900000   1.1143736      291.54555     -208.9405      -13938.192    
  40000000   1.1143736      292.34021      1139.6898     -13957.675    
Loop time of 25388.7 on 12 procs for 5000000 steps with 1608 atoms

Performance: 17.015 ns/day, 1.410 hours/ns, 196.938 timesteps/s
93.8% CPU use with 12 MPI tasks x no OpenMP threads

MPI task timing breakdown:
Section |  min time  |  avg time  |  max time  |%varavg| %total
---------------------------------------------------------------
Pair    | 14549      | 15714      | 16851      | 579.7 | 61.89
Bond    | 68.268     | 70.254     | 71.637     |  10.8 |  0.28
Kspace  | 5750.7     | 6890       | 8056.9     | 877.8 | 27.14
Neigh   | 427.91     | 428.08     | 428.27     |   0.5 |  1.69
Comm    | 706.44     | 714.67     | 721.56     |  14.7 |  2.81
Output  | 1.7787     | 1.7832     | 1.7913     |   0.2 |  0.01
Modify  | 1470.1     | 1471.9     | 1475.5     |   4.4 |  5.80
Other   |            | 98.61      |            |       |  0.39

Nlocal:            134 ave         143 max         126 min
Histogram: 1 0 2 1 3 2 1 1 0 1
Nghost:        4301.83 ave        4334 max        4263 min
Histogram: 2 0 0 2 2 0 2 1 1 2
Neighs:          49959 ave       53525 max       45712 min
Histogram: 2 1 0 2 0 2 0 1 0 4

Total # of neighbors = 599508
Ave neighs/atom = 372.82836
Ave special neighs/atom = 1.8656716
Neighbor list builds = 201781
Dangerous builds = 0
