LAMMPS (23 Jun 2022 - Update 2)
WARNING: Using I/O redirection is unreliable with parallel runs. Better use -in switch to read input file. (../lammps.cpp:530)
####################################################
# Preprocessing Li2SO4 in water
#################### SETTING UP ####################
units real
dimension 3
newton on
boundary p p p
atom_style full

#################### VARIABLES ####################
variable Temp equal 298.15    # Temperature in K
variable Pres equal 1    # Pressure in atm.

variable RandomSeed equal 32 # The random seed for velocity
variable tstep equal 1 # timestep in fs

#################### NPT ####################
variable Ninptpre equal 10000 # Pre-initialize the NPT ensemble (very small timesteps)
variable Ninpt equal 5000000  # Initialize the NPT ensemble
variable Npnpt equal 5000000  # Production in the NPT ensemble (volume)

#################### NVT ####################
variable Ninvtpre equal 10000  # Pre-initialize the NVT ensemble (very small timesteps)
variable Ninvt equal 2500000   # Initialize the NVT ensemble 2.5Mstep
variable Nrun1 equal 250000  # production in the NVT ensemble (Transport properties)
variable Nrun2 equal 1000000  # production in the NVT ensemble (Transport properties)
variable Nrun3 equal 2500000  # production in the NVT ensemble (Transport properties)
variable Nrun4 equal 5000000  # production in the NVT ensemble (Transport properties)

variable Nf equal 100000      # Nfreq (fix ave/time and thermo)
variable Ne equal  1          # Nevery (fix ave/time)
variable Nr equal ${Nf}/${Ne} # Nrepeat (fix ave/time)
variable Nr equal 100000/${Ne} 
variable Nr equal 100000/1 
variable Nd equal ${Nf} 	  # Frequency of outputting positions of atoms in the NVT ensemble
variable Nd equal 100000 	  
variable NBR equal ${Npnpt}/100 # Block averaging for density (NPT)
variable NBR equal 5000000/100 

variable nb equal 10          # Number of blocks (fix ordern)
variable nbe equal 20         # Number of block elements (fix ordern)
variable Nvisc equal 5        # Nevery for viscosity (fix ordern: sample data at (Nvisc*2))
variable Ncond equal 5        # Nevery for Tconductivity (fix ordern: sample data at (Ncond*2))
variable Ndiff equal 1000     # Nevery for diffusivity (fix ordern: sample data at (Ndiff))
variable Nwrit equal 100000   # Nwrite for transport properties (fix ordern: write every (Nwrit))

variable Nrdfe equal 1000     # Nevery for RDF (fix ave/time)
variable Nrdfw equal 1000     # Nwrite for RDF (compute rdf/ext: write every (Nrdfw*Nrdfe))
variable binnum equal 2000    # Number of bins for RDF

#################### ATOM DEFINITION and FORCEFIELD ####################
read_data ./data.lmp                     # read the positions
Reading data file ...
  orthogonal box = (0 0 0) to (26.379509 26.379509 26.379509)
  2 by 2 by 3 MPI processor grid
  reading atoms ...
  1608 atoms
  scanning bonds ...
  2 = max bonds/atom
  scanning angles ...
  1 = max angles/atom
  reading bonds ...
  1000 bonds
  reading angles ...
  500 angles
Finding 1-2 1-3 1-4 neighbors ...
  special bond factors lj:    0        0        0       
  special bond factors coul:  0        0        0       
     2 = max # of 1-2 neighbors
     1 = max # of 1-3 neighbors
     1 = max # of 1-4 neighbors
     2 = max # of special neighbors
  special bonds CPU = 0.002 seconds
  read_data CPU = 0.022 seconds
include ./forcefield.data                # read the force field
#--------INTERMOLECULAR POTENTIAL -------------------#
# --------Developed for MadridT KCl + TIP4P/2005-----#

mass 1 15.9994	# Ow
mass 2 1.008	# Hw
mass 3 6.941	# Li
mass 4 35.453	# Cl


pair_style lj/cut/tip4p/long 1 2 1 1 0.1546 10.0
kspace_style pppm/tip4p 1.0e-5
pair_modify mix arithmetic tail yes # ATC and Lorentz-Berthelot combining rules

#-----------------Combinations----------------------------
# atomtype atomtype epsilon sigma

pair_coeff 1 1 0.185200 3.15890    # Ow-Ow
pair_coeff 1 2 0.000000 0.00000    # Ow-Hw
pair_coeff 1 3 0.167459 2.12000    # Ow-Li
pair_coeff 1 4 0.014814 4.23867    # Ow-Cl

pair_coeff 2 2 0.000000 0.00000    # Hw-Hw
pair_coeff 2 3 0.000000 0.00000    # Hw-K
pair_coeff 2 4 0.000000 0.00000    # Hw-Cl

pair_coeff 3 3 0.103989 1.43970    # Li-Li
pair_coeff 3 4 0.306631 2.70000    # Li-Cl

pair_coeff 4 4 0.018385 4.69906    # Cl-Cl

bond_style  harmonic
bond_coeff 1 2000 0.9572           # Ow-Hw

angle_style harmonic
angle_coeff 1 200 104.52           # H-Ow-H

#dihedral_style none
#improper_style none

set type 1 charge -1.1128          # O
Setting atom values ...
  500 settings made for charge
set type 2 charge +0.5564          # OH
Setting atom values ...
  1000 settings made for charge
set type 3 charge +0.8500          # Li
Setting atom values ...
  54 settings made for charge
set type 4 charge -0.8500          # Cl
Setting atom values ...
  54 settings made for charge

#################### INITIALIZATION ####################
group wat type 1		# O water
500 atoms in group wat
group Li type 3			# Potasium ion
54 atoms in group Li
group Cl type 4			# Chlorine ion
54 atoms in group Cl

# neigbor lists
neighbor 2.0 bin
neigh_modify every 1 delay 0 check yes

# velocity-Verlet integrator
run_style verlet


# minimizing the system using the conjugate gradient method
min_style cg
min_modify dmax 0.05
minimize 1.0e-6 1.0e-6 1000 10000
PPPM initialization ...
  extracting TIP4P info from pair style
  using 12-bit tables for long-range coulomb (../kspace.cpp:342)
  G vector (1/distance) = 0.31127036
  grid = 25 25 25
  stencil order = 5
  estimated absolute RMS force accuracy = 0.0034097995
  estimated relative force accuracy = 1.026851e-05
  using double precision KISS FFT
  3d grid and FFT values/proc = 6400 1875
Generated 0 of 6 mixed pair_coeff terms from arithmetic mixing rule
Neighbor list info ...
  update every 1 steps, delay 0 steps, check yes
  max neighbors/atom: 2000, page size: 100000
  master list distance cutoff = 12.3092
  ghost atom cutoff = 12.3092
  binsize = 6.1546, bins = 5 5 5
  1 neighbor lists, perpetual/occasional/extra = 1 0 0
  (1) pair lj/cut/tip4p/long, perpetual
      attributes: half, newton on
      pair build: half/bin/newton
      stencil: half/bin/3d
      bin: standard
Per MPI rank memory allocation (min/avg/max) = 8.944 | 8.964 | 9.004 Mbytes
   Step          Temp          E_pair         E_mol          TotEng         Press     
         0   0              641.68376      3.1566538e-05  641.68379      52703.279    
      1000   0             -15695.723      94.172312     -15601.551     -5299.7128    
Loop time of 5.96284 on 12 procs for 1000 steps with 1608 atoms

93.3% CPU use with 12 MPI tasks x no OpenMP threads

Minimization stats:
  Stopping criterion = max iterations
  Energy initial, next-to-last, final = 
      641.683787181595  -15601.0710018281   -15601.550789311
  Force two-norm initial, final = 2112.4623 42.476166
  Force max component initial, final = 608.22136 9.3161348
  Final line search alpha, max atom move = 0.0026960674 0.025116928
  Iterations, force evaluations = 1000 1842

MPI task timing breakdown:
Section |  min time  |  avg time  |  max time  |%varavg| %total
---------------------------------------------------------------
Pair    | 3.3301     | 3.6683     | 4.1016     |  11.7 | 61.52
Bond    | 0.017154   | 0.018028   | 0.019111   |   0.4 |  0.30
Kspace  | 1.4834     | 1.9144     | 2.2544     |  16.1 | 32.11
Neigh   | 0.030726   | 0.03077    | 0.030824   |   0.0 |  0.52
Comm    | 0.22665    | 0.23304    | 0.23874    |   0.7 |  3.91
Output  | 7.299e-05  | 9.2422e-05 | 0.00029714 |   0.0 |  0.00
Modify  | 0          | 0          | 0          |   0.0 |  0.00
Other   |            | 0.09818    |            |       |  1.65

Nlocal:            134 ave         140 max         128 min
Histogram: 1 1 1 0 3 2 0 2 1 1
Nghost:        4116.92 ave        4183 max        4017 min
Histogram: 1 0 1 0 3 0 2 1 1 3
Neighs:        45853.6 ave       49043 max       42855 min
Histogram: 3 1 0 1 0 1 3 1 0 2

Total # of neighbors = 550243
Ave neighs/atom = 342.19092
Ave special neighs/atom = 1.8656716
Neighbor list builds = 16
Dangerous builds = 0
reset_timestep 0


# initializing velocities
velocity all create ${Temp} ${RandomSeed}
velocity all create 298.15 ${RandomSeed}
velocity all create 298.15 32

# rate of writing thermal properties to the log file
thermo_style custom step density temp press etotal
thermo_modify flush yes
thermo ${Nf}
thermo 100000

#################### 2) Initialize the NPT ensemble ####################
######### Go to the correct temperature now ant initiate that ##########
fix constrain all shake 1.0e-6 1000 0 b 1 a 1
       0 = # of size 2 clusters
       0 = # of size 3 clusters
       0 = # of size 4 clusters
     500 = # of frozen angles
  find clusters CPU = 0.001 seconds
fix integrate all npt temp ${Temp} ${Temp} 10.0 iso ${Pres} ${Pres} 100.0
fix integrate all npt temp 298.15 ${Temp} 10.0 iso ${Pres} ${Pres} 100.0
fix integrate all npt temp 298.15 298.15 10.0 iso ${Pres} ${Pres} 100.0
fix integrate all npt temp 298.15 298.15 10.0 iso 1 ${Pres} 100.0
fix integrate all npt temp 298.15 298.15 10.0 iso 1 1 100.0


# Initializing the whole system with very small timesteps in the NPT ensemble
timestep 0.001
run ${Ninptpre}
run 10000
PPPM initialization ...
  extracting TIP4P info from pair style
  using 12-bit tables for long-range coulomb (../kspace.cpp:342)
  G vector (1/distance) = 0.31127036
  grid = 25 25 25
  stencil order = 5
  estimated absolute RMS force accuracy = 0.0034097995
  estimated relative force accuracy = 1.026851e-05
  using double precision KISS FFT
  3d grid and FFT values/proc = 6400 1875
Generated 0 of 6 mixed pair_coeff terms from arithmetic mixing rule
Per MPI rank memory allocation (min/avg/max) = 8.694 | 8.714 | 8.754 Mbytes
   Step        Density          Temp          Press          TotEng    
         0   1.0219065      432.81576      1282264.9     -14267.536    
     10000   1.030085       175.47613      1175.0027     -14468.941    
Loop time of 42.8518 on 12 procs for 10000 steps with 1608 atoms

Performance: 0.020 ns/day, 1190.328 hours/ns, 233.362 timesteps/s
92.1% CPU use with 12 MPI tasks x no OpenMP threads

MPI task timing breakdown:
Section |  min time  |  avg time  |  max time  |%varavg| %total
---------------------------------------------------------------
Pair    | 21.593     | 24.267     | 26.712     |  29.6 | 56.63
Bond    | 0.0060318  | 0.0077671  | 0.0099322  |   1.0 |  0.02
Kspace  | 8.0465     | 10.488     | 13.164     |  44.9 | 24.47
Neigh   | 0          | 0          | 0          |   0.0 |  0.00
Comm    | 1.2005     | 1.2185     | 1.2423     |   1.3 |  2.84
Output  | 6.1798e-05 | 8.4155e-05 | 0.00031672 |   0.0 |  0.00
Modify  | 4.6114     | 5.1202     | 6.7264     |  22.0 | 11.95
Other   |            | 1.751      |            |       |  4.09

Nlocal:            134 ave         139 max         128 min
Histogram: 2 0 1 0 2 3 0 0 1 3
Nghost:         4126.5 ave        4191 max        4024 min
Histogram: 1 0 1 0 2 1 2 1 2 2
Neighs:        45850.9 ave       48798 max       41816 min
Histogram: 1 0 2 1 1 0 1 4 0 2

Total # of neighbors = 550211
Ave neighs/atom = 342.17102
Ave special neighs/atom = 1.8656716
Neighbor list builds = 0
Dangerous builds = 0
timestep 0.01
run ${Ninptpre}
run 10000
PPPM initialization ...
  extracting TIP4P info from pair style
  using 12-bit tables for long-range coulomb (../kspace.cpp:342)
  G vector (1/distance) = 0.3114609
  grid = 25 25 25
  stencil order = 5
  estimated absolute RMS force accuracy = 0.0033829568
  estimated relative force accuracy = 1.0187674e-05
  using double precision KISS FFT
  3d grid and FFT values/proc = 6400 1875
Generated 0 of 6 mixed pair_coeff terms from arithmetic mixing rule
Per MPI rank memory allocation (min/avg/max) = 8.694 | 8.714 | 8.754 Mbytes
   Step        Density          Temp          Press          TotEng    
     10000   1.030085       175.47613     -179047.46     -14468.942    
     20000   1.0395842      298.14384      457.63199     -13464.368    
Loop time of 42.6221 on 12 procs for 10000 steps with 1608 atoms

Performance: 0.203 ns/day, 118.395 hours/ns, 234.620 timesteps/s
92.5% CPU use with 12 MPI tasks x no OpenMP threads

MPI task timing breakdown:
Section |  min time  |  avg time  |  max time  |%varavg| %total
---------------------------------------------------------------
Pair    | 21.196     | 24.232     | 26.114     |  28.7 | 56.85
Bond    | 0.0063399  | 0.0076085  | 0.0082337  |   0.6 |  0.02
Kspace  | 8.3215     | 10.218     | 13.256     |  44.3 | 23.97
Neigh   | 0.0075709  | 0.0075941  | 0.0076112  |   0.0 |  0.02
Comm    | 1.2346     | 1.2581     | 1.2877     |   1.3 |  2.95
Output  | 6.1163e-05 | 7.9114e-05 | 0.00024918 |   0.0 |  0.00
Modify  | 4.6347     | 5.1434     | 6.7479     |  21.9 | 12.07
Other   |            | 1.755      |            |       |  4.12

Nlocal:            134 ave         141 max         124 min
Histogram: 1 1 0 1 1 2 2 0 1 3
Nghost:        4160.58 ave        4254 max        4042 min
Histogram: 1 0 0 3 1 1 2 2 1 1
Neighs:          46517 ave       48842 max       40756 min
Histogram: 1 0 0 0 1 2 1 0 2 5

Total # of neighbors = 558204
Ave neighs/atom = 347.14179
Ave special neighs/atom = 1.8656716
Neighbor list builds = 4
Dangerous builds = 0
timestep 0.1
run ${Ninptpre}
run 10000
PPPM initialization ...
  extracting TIP4P info from pair style
  using 12-bit tables for long-range coulomb (../kspace.cpp:342)
  G vector (1/distance) = 0.3116801
  grid = 25 25 25
  stencil order = 5
  estimated absolute RMS force accuracy = 0.003352316
  estimated relative force accuracy = 1.00954e-05
  using double precision KISS FFT
  3d grid and FFT values/proc = 6400 1875
Generated 0 of 6 mixed pair_coeff terms from arithmetic mixing rule
Per MPI rank memory allocation (min/avg/max) = 8.694 | 8.714 | 8.754 Mbytes
   Step        Density          Temp          Press          TotEng    
     20000   1.0395842      298.14384     -17518.259     -13464.368    
     30000   1.0825313      290.48193      79.479133     -13668.615    
Loop time of 45.1026 on 12 procs for 10000 steps with 1608 atoms

Performance: 1.916 ns/day, 12.529 hours/ns, 221.717 timesteps/s
92.2% CPU use with 12 MPI tasks x no OpenMP threads

MPI task timing breakdown:
Section |  min time  |  avg time  |  max time  |%varavg| %total
---------------------------------------------------------------
Pair    | 21.156     | 25.95      | 28.227     |  32.7 | 57.54
Bond    | 0.0058976  | 0.0076934  | 0.008705   |   0.8 |  0.02
Kspace  | 8.5483     | 10.839     | 15.631     |  50.6 | 24.03
Neigh   | 0.083094   | 0.083231   | 0.083359   |   0.0 |  0.18
Comm    | 1.278      | 1.2974     | 1.3203     |   1.1 |  2.88
Output  | 6.0992e-05 | 7.765e-05  | 0.00024394 |   0.0 |  0.00
Modify  | 4.6651     | 5.171      | 6.7735     |  21.8 | 11.47
Other   |            | 1.755      |            |       |  3.89

Nlocal:            134 ave         146 max         114 min
Histogram: 1 0 0 0 2 1 4 2 0 2
Nghost:        4267.92 ave        4337 max        4166 min
Histogram: 1 0 0 3 1 1 1 2 1 2
Neighs:        48594.9 ave       54521 max       39424 min
Histogram: 1 0 0 0 1 3 2 4 0 1

Total # of neighbors = 583139
Ave neighs/atom = 362.64863
Ave special neighs/atom = 1.8656716
Neighbor list builds = 41
Dangerous builds = 0
timestep 0.2
run ${Ninptpre}
run 10000
PPPM initialization ...
  extracting TIP4P info from pair style
  using 12-bit tables for long-range coulomb (../kspace.cpp:342)
  G vector (1/distance) = 0.30971566
  grid = 24 24 24
  stencil order = 5
  estimated absolute RMS force accuracy = 0.0038659555
  estimated relative force accuracy = 1.164221e-05
  using double precision KISS FFT
  3d grid and FFT values/proc = 5415 1152
Generated 0 of 6 mixed pair_coeff terms from arithmetic mixing rule
Per MPI rank memory allocation (min/avg/max) = 8.66 | 8.665 | 8.669 Mbytes
   Step        Density          Temp          Press          TotEng    
     30000   1.0825313      290.48193      5508.2507     -13668.629    
     40000   1.1066799      310.21511      243.63852     -13745.059    
Loop time of 42.9012 on 12 procs for 10000 steps with 1608 atoms

Performance: 4.028 ns/day, 5.959 hours/ns, 233.094 timesteps/s
94.9% CPU use with 12 MPI tasks x no OpenMP threads

MPI task timing breakdown:
Section |  min time  |  avg time  |  max time  |%varavg| %total
---------------------------------------------------------------
Pair    | 22.268     | 26.754     | 28.437     |  29.4 | 62.36
Bond    | 0.0061286  | 0.0076626  | 0.0086304  |   0.8 |  0.02
Kspace  | 7.9642     | 9.6538     | 14.131     |  48.9 | 22.50
Neigh   | 0.17653    | 0.17676    | 0.177      |   0.0 |  0.41
Comm    | 1.2715     | 1.2902     | 1.3148     |   1.1 |  3.01
Output  | 6.4996e-05 | 8.0335e-05 | 0.00023689 |   0.0 |  0.00
Modify  | 4.4752     | 4.763      | 4.8515     |   4.1 | 11.10
Other   |            | 0.2553     |            |       |  0.60

Nlocal:            134 ave         144 max         125 min
Histogram: 1 0 1 4 0 3 0 1 1 1
Nghost:        4310.75 ave        4333 max        4270 min
Histogram: 1 1 0 0 0 2 2 2 1 3
Neighs:        49680.6 ave       54159 max       43403 min
Histogram: 1 0 0 1 2 3 1 1 2 1

Total # of neighbors = 596167
Ave neighs/atom = 370.75062
Ave special neighs/atom = 1.8656716
Neighbor list builds = 86
Dangerous builds = 0
timestep 0.5
run ${Ninptpre}
run 10000
PPPM initialization ...
  extracting TIP4P info from pair style
  using 12-bit tables for long-range coulomb (../kspace.cpp:342)
  G vector (1/distance) = 0.31024698
  grid = 24 24 24
  stencil order = 5
  estimated absolute RMS force accuracy = 0.0037821256
  estimated relative force accuracy = 1.1389759e-05
  using double precision KISS FFT
  3d grid and FFT values/proc = 5415 1152
Generated 0 of 6 mixed pair_coeff terms from arithmetic mixing rule
Per MPI rank memory allocation (min/avg/max) = 8.661 | 8.665 | 8.669 Mbytes
   Step        Density          Temp          Press          TotEng    
     40000   1.1066799      310.21511      1494.8142     -13745.06     
     50000   1.1165776      301.33832     -458.73088     -13817.889    
Loop time of 44.1769 on 12 procs for 10000 steps with 1608 atoms

Performance: 9.779 ns/day, 2.454 hours/ns, 226.363 timesteps/s
94.5% CPU use with 12 MPI tasks x no OpenMP threads

MPI task timing breakdown:
Section |  min time  |  avg time  |  max time  |%varavg| %total
---------------------------------------------------------------
Pair    | 22.963     | 27.456     | 29.152     |  29.1 | 62.15
Bond    | 0.0059981  | 0.0077941  | 0.010096   |   1.1 |  0.02
Kspace  | 8.1919     | 9.889      | 14.377     |  48.5 | 22.38
Neigh   | 0.44654    | 0.44675    | 0.44688    |   0.0 |  1.01
Comm    | 1.307      | 1.3269     | 1.3457     |   1.0 |  3.00
Output  | 6.1198e-05 | 7.6645e-05 | 0.00023227 |   0.0 |  0.00
Modify  | 4.5067     | 4.7923     | 4.8815     |   4.1 | 10.85
Other   |            | 0.2584     |            |       |  0.58

Nlocal:            134 ave         143 max         124 min
Histogram: 2 1 1 1 0 0 2 2 2 1
Nghost:        4304.17 ave        4373 max        4227 min
Histogram: 1 2 0 1 2 0 2 1 1 2
Neighs:        50104.3 ave       56005 max       43905 min
Histogram: 1 0 1 3 2 2 0 0 1 2

Total # of neighbors = 601252
Ave neighs/atom = 373.91294
Ave special neighs/atom = 1.8656716
Neighbor list builds = 215
Dangerous builds = 0
reset_timestep 0

# continuing the initialization with the final value of timestep
unfix integrate
fix integrate all npt temp ${Temp} ${Temp} 100.0 iso ${Pres} ${Pres} 1000.0
fix integrate all npt temp 298.15 ${Temp} 100.0 iso ${Pres} ${Pres} 1000.0
fix integrate all npt temp 298.15 298.15 100.0 iso ${Pres} ${Pres} 1000.0
fix integrate all npt temp 298.15 298.15 100.0 iso 1 ${Pres} 1000.0
fix integrate all npt temp 298.15 298.15 100.0 iso 1 1 1000.0

timestep ${tstep}
timestep 1


run ${Ninpt}
run 5000000
PPPM initialization ...
  extracting TIP4P info from pair style
  using 12-bit tables for long-range coulomb (../kspace.cpp:342)
  G vector (1/distance) = 0.31046107
  grid = 24 24 24
  stencil order = 5
  estimated absolute RMS force accuracy = 0.0037488231
  estimated relative force accuracy = 1.128947e-05
  using double precision KISS FFT
  3d grid and FFT values/proc = 5415 1152
Generated 0 of 6 mixed pair_coeff terms from arithmetic mixing rule
Per MPI rank memory allocation (min/avg/max) = 8.661 | 8.666 | 8.669 Mbytes
   Step        Density          Temp          Press          TotEng    
         0   1.1165776      301.33832     -1005.1572     -13817.889    
    100000   1.1126665      299.14813      242.9445      -13852.569    
    200000   1.1193645      288.53009     -205.00825     -13984.892    
    300000   1.1034275      292.51741      541.07627     -13938.526    
    400000   1.1121016      307.93418     -284.33653     -13925.508    
    500000   1.1061018      286.77436     -468.83729     -13895.982    
    600000   1.1052202      297.66031     -289.47415     -13888.55     
    700000   1.1077258      302.09066     -896.33805     -13941.321    
    800000   1.126635       302.74364      845.2849      -13958.398    
    900000   1.1073496      296.02491      506.37047     -13959.166    
   1000000   1.1005536      297.19852     -524.40925     -13861.379    
   1100000   1.109446       301.5936      -165.54445     -13925.038    
   1200000   1.1106827      301.8644       14.818161     -13941.331    
   1300000   1.1248239      295.58731      1130.4334     -13900.607    
   1400000   1.1165737      299.84632      457.73894     -13954.257    
   1500000   1.1041127      296.66857     -480.91431     -13980.265    
   1600000   1.1242085      311.20424      453.98371     -13900.478    
   1700000   1.1014921      299.30824     -233.61675     -13863.593    
   1800000   1.1181409      298.77969     -49.742914     -13941.13     
   1900000   1.116532       313.52971      236.10321     -13913.208    
   2000000   1.1206986      295.28818     -518.8437      -13958.072    
   2100000   1.1222019      285.75048      532.2995      -13995.434    
   2200000   1.1282882      293.42577      531.47255     -13938.214    
   2300000   1.113273       297.92696      11.262474     -13851.126    
   2400000   1.1149243      295.07467     -233.69635     -13941.806    
   2500000   1.1162092      293.90061     -399.08181     -13942.414    
   2600000   1.113315       285.09594      540.58694     -13994.191    
   2700000   1.1272056      289.20169      89.519277     -13892.502    
   2800000   1.1134587      302.12255     -1813.2371     -13876.041    
   2900000   1.1199523      294.86599     -655.47972     -13932.521    
   3000000   1.1325197      303.5678       214.29221     -13951.547    
   3100000   1.1124526      293.14303     -1184.4207     -13908.484    
   3200000   1.1225136      298.54571      1232.7091     -13890.144    
   3300000   1.111414       290.53154      267.91292     -13998.639    
   3400000   1.1087649      294.78349      433.36015     -13971.291    
   3500000   1.1156443      291.60973     -1112.0897     -13919.223    
   3600000   1.1058213      290.01196     -502.72761     -13940.704    
   3700000   1.1171395      296.13518     -648.25335     -13981.185    
   3800000   1.1106996      305.58532     -790.3651      -13943.034    
   3900000   1.1142104      296.72604      636.49113     -13922.389    
   4000000   1.1325508      297.31038      79.875171     -13961.17     
   4100000   1.1106809      282.19253     -750.15088     -13935.571    
   4200000   1.1166413      297.52499      376.80382     -13895.293    
   4300000   1.1002292      300.46971     -3.4348681     -13812.557    
   4400000   1.1165119      288.2606       1417.6217     -13947.458    
   4500000   1.1290418      304.01959     -1052.936      -13909.445    
   4600000   1.1104226      298.47013      444.27736     -13885.017    
   4700000   1.1140912      297.57276      1386.7343     -13894.89     
   4800000   1.126703       298.9959      -94.435069     -13916.567    
   4900000   1.1124903      306.14403     -23.721899     -13923.743    
   5000000   1.114121       295.18002     -1267.3912     -13976.309    
Loop time of 22835.5 on 12 procs for 5000000 steps with 1608 atoms

Performance: 18.918 ns/day, 1.269 hours/ns, 218.957 timesteps/s
94.0% CPU use with 12 MPI tasks x no OpenMP threads

MPI task timing breakdown:
Section |  min time  |  avg time  |  max time  |%varavg| %total
---------------------------------------------------------------
Pair    | 12772      | 13875      | 14584      | 560.4 | 60.76
Bond    | 2.9748     | 3.7831     | 4.1711     |  16.7 |  0.02
Kspace  | 4593.6     | 5305.6     | 6408       | 907.6 | 23.23
Neigh   | 429.59     | 429.81     | 429.99     |   0.6 |  1.88
Comm    | 674.85     | 684.98     | 691.53     |  19.3 |  3.00
Output  | 0.0031444  | 0.0039476  | 0.012424   |   4.1 |  0.00
Modify  | 2265.9     | 2406.9     | 2449.1     |  90.3 | 10.54
Other   |            | 129.4      |            |       |  0.57

Nlocal:            134 ave         142 max         127 min
Histogram: 2 0 2 2 0 1 3 0 0 2
Nghost:        4312.92 ave        4382 max        4243 min
Histogram: 2 1 2 1 0 0 1 0 3 2
Neighs:        49972.1 ave       56209 max       45933 min
Histogram: 2 3 1 0 1 2 1 0 1 1

Total # of neighbors = 599665
Ave neighs/atom = 372.926
Ave special neighs/atom = 1.8656716
Neighbor list builds = 203863
Dangerous builds = 0
reset_timestep 0


#################### 3) Obtaining average volume in NPT ######################
# Creating restart files
restart ${Nf} 1.restart 2.restart
restart 100000 1.restart 2.restart

# Getting the average volume of the system
variable Volume equal vol
fix VoluAve all ave/time 1 ${Npnpt} ${Npnpt} v_Volume file volume.dat
fix VoluAve all ave/time 1 5000000 ${Npnpt} v_Volume file volume.dat
fix VoluAve all ave/time 1 5000000 5000000 v_Volume file volume.dat

variable Dens equal density
fix DensAve all ave/time 1 ${NBR} ${NBR} v_Dens file density.dat
fix DensAve all ave/time 1 50000 ${NBR} v_Dens file density.dat
fix DensAve all ave/time 1 50000 50000 v_Dens file density.dat

compute T1 all temp
fix TempAve1 all ave/time 1 ${NBR} ${NBR} c_T1 file temperatureNPT.dat
fix TempAve1 all ave/time 1 50000 ${NBR} c_T1 file temperatureNPT.dat
fix TempAve1 all ave/time 1 50000 50000 c_T1 file temperatureNPT.dat

compute P1 all pressure T1
fix PressAve1 all ave/time 1 ${NBR} ${NBR} c_P1 file pressureNPT.dat
fix PressAve1 all ave/time 1 50000 ${NBR} c_P1 file pressureNPT.dat
fix PressAve1 all ave/time 1 50000 50000 c_P1 file pressureNPT.dat

run ${Npnpt}
run 5000000
PPPM initialization ...
  extracting TIP4P info from pair style
  using 12-bit tables for long-range coulomb (../kspace.cpp:342)
  G vector (1/distance) = 0.31040812
  grid = 24 24 24
  stencil order = 5
  estimated absolute RMS force accuracy = 0.0037570331
  estimated relative force accuracy = 1.1314194e-05
  using double precision KISS FFT
  3d grid and FFT values/proc = 5415 1152
Generated 0 of 6 mixed pair_coeff terms from arithmetic mixing rule
Per MPI rank memory allocation (min/avg/max) = 8.661 | 8.666 | 8.67 Mbytes
   Step        Density          Temp          Press          TotEng    
         0   1.114121       295.18002     -1173.8852     -13976.309    
    100000   1.1148256      307.73428      335.91808     -13932.07     
    200000   1.1288002      295.31233      977.11357     -14006.827    
    300000   1.1041707      295.52889      204.59656     -13965.164    
    400000   1.1037301      292.64228     -133.65974     -14014.326    
    500000   1.1016337      292.61985     -463.73398     -13913.401    
    600000   1.1124235      305.41476     -380.52112     -13905.307    
    700000   1.1050938      302.87871     -599.03088     -13963.093    
    800000   1.1109176      303.78413      1186.0717     -13930.573    
    900000   1.1109324      303.93328      80.046591     -13848.467    
   1000000   1.0975065      311.19099     -1375.8912     -13872.856    
   1100000   1.1224272      299.42615      372.84639     -13971.826    
   1200000   1.1155328      299.60332     -1140.6904     -13970.615    
   1300000   1.1096926      298.48914     -190.03675     -13961.028    
   1400000   1.1116906      287.23329     -4.7936986     -14002.683    
   1500000   1.1027903      309.91019      2.301105      -13863.064    
   1600000   1.1076564      298.80956     -109.67065     -13931.365    
   1700000   1.1092678      299.87939     -369.77478     -13930.819    
   1800000   1.1044803      315.20268     -506.98133     -13845.456    
   1900000   1.1048557      290.03643     -52.555621     -13966.126    
   2000000   1.1041686      286.48617     -1077.2095     -13972.178    
   2100000   1.1239121      298.30889      835.83833     -13945.615    
   2200000   1.1232059      287.97132     -31.900843     -13942.606    
   2300000   1.1167863      294.31847     -387.34096     -13916.601    
   2400000   1.1330513      302.06443      1169.0221     -13868.474    
   2500000   1.1056754      295.28018      264.39179     -13982.75     
   2600000   1.100467       290.11747     -2185.7912     -13919.891    
   2700000   1.1034048      306.87883      79.636541     -13822.577    
   2800000   1.1120081      290.00349      17.243694     -13900.329    
   2900000   1.1250272      302.16392      628.0967      -13920.945    
   3000000   1.1070459      292.87048     -245.50736     -13894.546    
   3100000   1.1271454      306.13752      22.884057     -13906.711    
   3200000   1.1046154      289.25508      26.665022     -13917.943    
   3300000   1.1174767      292.26065     -242.98591     -13889.034    
   3400000   1.1151286      307.70808     -499.25897     -13929.433    
   3500000   1.1277742      300.29953      1196.9796     -13893.886    
   3600000   1.1185561      294.05899     -369.44546     -13991.147    
   3700000   1.1175006      299.65353      474.87581     -13940.631    
   3800000   1.0894639      299.49954     -74.401387     -13925.465    
   3900000   1.0944802      311.87695     -155.76007     -13875.157    
   4000000   1.1260179      296.35977      634.64418     -13925.163    
   4100000   1.1073796      293.56611      654.64307     -13911.905    
   4200000   1.1140621      302.75247      188.36027     -13935.578    
   4300000   1.1079042      291.55471      689.42487     -13893.154    
   4400000   1.1194104      288.68874      314.3422      -13983.61     
   4500000   1.1082109      308.93751      717.31396     -13851.944    
   4600000   1.1225749      308.26371      689.18893     -13927.856    
   4700000   1.1106835      299.84279     -1061.9235     -13964.523    
   4800000   1.114988       304.97584      426.75        -13889.085    
   4900000   1.1050048      303.56218      551.1098      -13902.862    
   5000000   1.114563       299.96098      806.0216      -13893.688    
Loop time of 23009.5 on 12 procs for 5000000 steps with 1608 atoms

Performance: 18.775 ns/day, 1.278 hours/ns, 217.301 timesteps/s
93.9% CPU use with 12 MPI tasks x no OpenMP threads

MPI task timing breakdown:
Section |  min time  |  avg time  |  max time  |%varavg| %total
---------------------------------------------------------------
Pair    | 12796      | 13912      | 14668      | 585.3 | 60.46
Bond    | 3.5148     | 3.9437     | 4.353      |  14.0 |  0.02
Kspace  | 4488       | 5246.7     | 6360.8     | 954.2 | 22.80
Neigh   | 430.06     | 430.29     | 430.49     |   0.6 |  1.87
Comm    | 676.97     | 686.97     | 694.67     |  20.4 |  2.99
Output  | 0.22629    | 0.22678    | 0.23183    |   0.3 |  0.00
Modify  | 2459.3     | 2599.8     | 2642.1     |  86.4 | 11.30
Other   |            | 129.6      |            |       |  0.56

Nlocal:            134 ave         144 max         118 min
Histogram: 1 1 0 0 1 3 0 1 3 2
Nghost:         4305.5 ave        4380 max        4223 min
Histogram: 2 1 0 0 0 4 3 0 1 1
Neighs:        49957.1 ave       56300 max       41301 min
Histogram: 1 0 0 1 2 1 4 1 1 1

Total # of neighbors = 599485
Ave neighs/atom = 372.81405
Ave special neighs/atom = 1.8656716
Neighbor list builds = 203830
Dangerous builds = 0

#################### 4) Initializing the NVT ensemble ####################
# scaling the size of the system to the average volume
variable sidesize equal (f_VoluAve^(1.0/3.0))    # get the volume
variable xlow equal xlo
variable ylow equal ylo
variable zlow equal zlo
variable xhig equal (xlo+${sidesize})
variable xhig equal (xlo+25.6302980187389)
variable yhig equal (ylo+${sidesize})
variable yhig equal (ylo+25.6302980187389)
variable zhig equal (zlo+${sidesize})
variable zhig equal (zlo+25.6302980187389)
change_box all x final ${xlow} ${xhig} y final ${ylow} ${yhig} z final ${zlow} ${zhig}
change_box all x final 0.376123252676123 ${xhig} y final ${ylow} ${yhig} z final ${zlow} ${zhig}
change_box all x final 0.376123252676123 26.006421271415 y final ${ylow} ${yhig} z final ${zlow} ${zhig}
change_box all x final 0.376123252676123 26.006421271415 y final 0.376123252676123 ${yhig} z final ${zlow} ${zhig}
change_box all x final 0.376123252676123 26.006421271415 y final 0.376123252676123 26.006421271415 z final ${zlow} ${zhig}
change_box all x final 0.376123252676123 26.006421271415 y final 0.376123252676123 26.006421271415 z final 0.376123252676123 ${zhig}
change_box all x final 0.376123252676123 26.006421271415 y final 0.376123252676123 26.006421271415 z final 0.376123252676123 26.006421271415
Changing box ...
  orthogonal box = (0.37612325 0.37612325 0.37612325) to (26.006421 26.003386 26.003386)
  orthogonal box = (0.37612325 0.37612325 0.37612325) to (26.006421 26.006421 26.003386)
  orthogonal box = (0.37612325 0.37612325 0.37612325) to (26.006421 26.006421 26.006421)
unfix DensAve
unfix VoluAve
unfix TempAve1
unfix PressAve1

# changing the ensemble to NVT
unfix integrate
fix integrate all nvt temp ${Temp} ${Temp} 10.0
fix integrate all nvt temp 298.15 ${Temp} 10.0
fix integrate all nvt temp 298.15 298.15 10.0

timestep 0.001
run ${Ninvtpre}
run 10000
PPPM initialization ...
  extracting TIP4P info from pair style
  using 12-bit tables for long-range coulomb (../kspace.cpp:342)
  G vector (1/distance) = 0.31040912
  grid = 24 24 24
  stencil order = 5
  estimated absolute RMS force accuracy = 0.003756879
  estimated relative force accuracy = 1.1313729e-05
  using double precision KISS FFT
  3d grid and FFT values/proc = 5415 1152
Generated 0 of 6 mixed pair_coeff terms from arithmetic mixing rule
Per MPI rank memory allocation (min/avg/max) = 8.661 | 8.666 | 8.67 Mbytes
   Step        Density          Temp          Press          TotEng    
   5000000   1.114167       299.96098      74101.638     -13896.195    
   5010000   1.114167       301.05591      21.076718     -13911.258    
Loop time of 30.2086 on 12 procs for 10000 steps with 1608 atoms

Performance: 0.029 ns/day, 839.128 hours/ns, 331.031 timesteps/s
94.4% CPU use with 12 MPI tasks x no OpenMP threads

MPI task timing breakdown:
Section |  min time  |  avg time  |  max time  |%varavg| %total
---------------------------------------------------------------
Pair    | 15.517     | 18.886     | 20.764     |  30.8 | 62.52
Bond    | 0.0026257  | 0.0038318  | 0.0047477  |   1.1 |  0.01
Kspace  | 7.016      | 8.8378     | 12.119     |  43.8 | 29.26
Neigh   | 0          | 0          | 0          |   0.0 |  0.00
Comm    | 1.2219     | 1.2807     | 1.3657     |   3.6 |  4.24
Output  | 6.0739e-05 | 7.5079e-05 | 0.00021848 |   0.0 |  0.00
Modify  | 1.0211     | 1.0316     | 1.0426     |   0.6 |  3.41
Other   |            | 0.1687     |            |       |  0.56

Nlocal:            134 ave         144 max         118 min
Histogram: 1 1 0 0 1 3 0 1 3 2
Nghost:        4304.75 ave        4380 max        4221 min
Histogram: 2 0 1 0 1 3 3 0 1 1
Neighs:          49938 ave       56269 max       41294 min
Histogram: 1 0 0 1 2 1 4 1 1 1

Total # of neighbors = 599256
Ave neighs/atom = 372.67164
Ave special neighs/atom = 1.8656716
Neighbor list builds = 0
Dangerous builds = 0
timestep 0.01
run ${Ninvtpre}
run 10000
PPPM initialization ...
  extracting TIP4P info from pair style
  using 12-bit tables for long-range coulomb (../kspace.cpp:342)
  G vector (1/distance) = 0.31040912
  grid = 24 24 24
  stencil order = 5
  estimated absolute RMS force accuracy = 0.003756879
  estimated relative force accuracy = 1.1313729e-05
  using double precision KISS FFT
  3d grid and FFT values/proc = 5415 1152
Generated 0 of 6 mixed pair_coeff terms from arithmetic mixing rule
Per MPI rank memory allocation (min/avg/max) = 8.661 | 8.666 | 8.67 Mbytes
   Step        Density          Temp          Press          TotEng    
   5010000   1.114167       301.05591      21.088044     -13911.258    
   5020000   1.114167       308.05053      454.15241     -13862.864    
Loop time of 30.1547 on 12 procs for 10000 steps with 1608 atoms

Performance: 0.287 ns/day, 83.763 hours/ns, 331.623 timesteps/s
94.4% CPU use with 12 MPI tasks x no OpenMP threads

MPI task timing breakdown:
Section |  min time  |  avg time  |  max time  |%varavg| %total
---------------------------------------------------------------
Pair    | 15.442     | 18.89      | 20.501     |  32.2 | 62.65
Bond    | 0.0026186  | 0.0038331  | 0.0045876  |   1.1 |  0.01
Kspace  | 7.169      | 8.7255     | 12.073     |  45.8 | 28.94
Neigh   | 0.0082259  | 0.0082371  | 0.0082495  |   0.0 |  0.03
Comm    | 1.2335     | 1.2966     | 1.4055     |   4.4 |  4.30
Output  | 6.5567e-05 | 8.2411e-05 | 0.00025143 |   0.0 |  0.00
Modify  | 1.0422     | 1.0614     | 1.0796     |   1.0 |  3.52
Other   |            | 0.1686     |            |       |  0.56

Nlocal:            134 ave         146 max         116 min
Histogram: 1 1 0 1 2 0 2 1 0 4
Nghost:        4298.42 ave        4372 max        4210 min
Histogram: 1 1 0 1 1 2 3 0 2 1
Neighs:        49945.2 ave       56022 max       41287 min
Histogram: 1 0 1 0 2 2 1 1 2 2

Total # of neighbors = 599342
Ave neighs/atom = 372.72512
Ave special neighs/atom = 1.8656716
Neighbor list builds = 4
Dangerous builds = 0
timestep 0.1
run ${Ninvtpre}
run 10000
PPPM initialization ...
  extracting TIP4P info from pair style
  using 12-bit tables for long-range coulomb (../kspace.cpp:342)
  G vector (1/distance) = 0.31040912
  grid = 24 24 24
  stencil order = 5
  estimated absolute RMS force accuracy = 0.003756879
  estimated relative force accuracy = 1.1313729e-05
  using double precision KISS FFT
  3d grid and FFT values/proc = 5415 1152
Generated 0 of 6 mixed pair_coeff terms from arithmetic mixing rule
Per MPI rank memory allocation (min/avg/max) = 8.661 | 8.666 | 8.67 Mbytes
   Step        Density          Temp          Press          TotEng    
   5020000   1.114167       308.05053      453.81773     -13862.864    
   5030000   1.114167       309.75145     -78.13262      -13862.717    
Loop time of 30.4809 on 12 procs for 10000 steps with 1608 atoms

Performance: 2.835 ns/day, 8.467 hours/ns, 328.075 timesteps/s
94.2% CPU use with 12 MPI tasks x no OpenMP threads

MPI task timing breakdown:
Section |  min time  |  avg time  |  max time  |%varavg| %total
---------------------------------------------------------------
Pair    | 17.157     | 19.016     | 20.485     |  21.9 | 62.39
Bond    | 0.0026108  | 0.0038238  | 0.0048909  |   1.2 |  0.01
Kspace  | 7.405      | 8.8394     | 10.664     |  31.3 | 29.00
Neigh   | 0.083477   | 0.083533   | 0.083576   |   0.0 |  0.27
Comm    | 1.2429     | 1.3089     | 1.3757     |   3.0 |  4.29
Output  | 6.0735e-05 | 7.6706e-05 | 0.00023419 |   0.0 |  0.00
Modify  | 1.044      | 1.0609     | 1.0777     |   0.9 |  3.48
Other   |            | 0.1687     |            |       |  0.55

Nlocal:            134 ave         141 max         122 min
Histogram: 1 1 0 0 2 1 1 2 1 3
Nghost:        4291.58 ave        4352 max        4227 min
Histogram: 1 1 3 1 0 0 2 1 2 1
Neighs:        49910.8 ave       54732 max       46050 min
Histogram: 2 1 0 2 2 0 4 0 0 1

Total # of neighbors = 598930
Ave neighs/atom = 372.46891
Ave special neighs/atom = 1.8656716
Neighbor list builds = 40
Dangerous builds = 0
timestep 0.2
run ${Ninvtpre}
run 10000
PPPM initialization ...
  extracting TIP4P info from pair style
  using 12-bit tables for long-range coulomb (../kspace.cpp:342)
  G vector (1/distance) = 0.31040912
  grid = 24 24 24
  stencil order = 5
  estimated absolute RMS force accuracy = 0.003756879
  estimated relative force accuracy = 1.1313729e-05
  using double precision KISS FFT
  3d grid and FFT values/proc = 5415 1152
Generated 0 of 6 mixed pair_coeff terms from arithmetic mixing rule
Per MPI rank memory allocation (min/avg/max) = 8.661 | 8.666 | 8.67 Mbytes
   Step        Density          Temp          Press          TotEng    
   5030000   1.114167       309.75145     -79.215283     -13862.717    
   5040000   1.114167       295.83958      765.04825     -13900.452    
Loop time of 30.6308 on 12 procs for 10000 steps with 1608 atoms

Performance: 5.641 ns/day, 4.254 hours/ns, 326.469 timesteps/s
94.4% CPU use with 12 MPI tasks x no OpenMP threads

MPI task timing breakdown:
Section |  min time  |  avg time  |  max time  |%varavg| %total
---------------------------------------------------------------
Pair    | 18.153     | 19.131     | 20.426     |  18.4 | 62.46
Bond    | 0.0025006  | 0.0038077  | 0.0049384  |   1.3 |  0.01
Kspace  | 7.5353     | 8.7893     | 9.7648     |  26.8 | 28.69
Neigh   | 0.16993    | 0.17002    | 0.17012    |   0.0 |  0.56
Comm    | 1.2803     | 1.3176     | 1.3687     |   2.0 |  4.30
Output  | 6.0792e-05 | 7.709e-05  | 0.00024081 |   0.0 |  0.00
Modify  | 1.0412     | 1.0486     | 1.0607     |   0.5 |  3.42
Other   |            | 0.1705     |            |       |  0.56

Nlocal:            134 ave         143 max         129 min
Histogram: 2 3 1 0 2 2 1 0 0 1
Nghost:        4299.25 ave        4327 max        4245 min
Histogram: 1 0 0 1 1 2 0 3 1 3
Neighs:        49922.5 ave       53625 max       47113 min
Histogram: 2 2 0 1 2 2 1 1 0 1

Total # of neighbors = 599070
Ave neighs/atom = 372.55597
Ave special neighs/atom = 1.8656716
Neighbor list builds = 83
Dangerous builds = 0
timestep 0.5
run ${Ninvtpre}
run 10000
PPPM initialization ...
  extracting TIP4P info from pair style
  using 12-bit tables for long-range coulomb (../kspace.cpp:342)
  G vector (1/distance) = 0.31040912
  grid = 24 24 24
  stencil order = 5
  estimated absolute RMS force accuracy = 0.003756879
  estimated relative force accuracy = 1.1313729e-05
  using double precision KISS FFT
  3d grid and FFT values/proc = 5415 1152
Generated 0 of 6 mixed pair_coeff terms from arithmetic mixing rule
Per MPI rank memory allocation (min/avg/max) = 8.661 | 8.666 | 8.67 Mbytes
   Step        Density          Temp          Press          TotEng    
   5040000   1.114167       295.83958      761.62697     -13900.452    
   5050000   1.114167       300.88279     -1436.7808     -13921.537    
Loop time of 31.0225 on 12 procs for 10000 steps with 1608 atoms

Performance: 13.925 ns/day, 1.723 hours/ns, 322.347 timesteps/s
94.7% CPU use with 12 MPI tasks x no OpenMP threads

MPI task timing breakdown:
Section |  min time  |  avg time  |  max time  |%varavg| %total
---------------------------------------------------------------
Pair    | 18.253     | 19.266     | 20.597     |  15.0 | 62.10
Bond    | 0.0025244  | 0.0037274  | 0.0046825  |   1.3 |  0.01
Kspace  | 7.3779     | 8.7155     | 9.7276     |  22.2 | 28.09
Neigh   | 0.42652    | 0.42709    | 0.42748    |   0.0 |  1.38
Comm    | 1.3045     | 1.3559     | 1.3834     |   1.8 |  4.37
Output  | 6.3014e-05 | 7.9511e-05 | 0.00024535 |   0.0 |  0.00
Modify  | 1.0658     | 1.0839     | 1.1075     |   1.1 |  3.49
Other   |            | 0.1705     |            |       |  0.55

Nlocal:            134 ave         142 max         124 min
Histogram: 1 0 2 2 1 0 1 1 2 2
Nghost:        4306.75 ave        4341 max        4283 min
Histogram: 2 2 2 1 1 0 1 1 1 1
Neighs:        49919.8 ave       54048 max       46006 min
Histogram: 2 0 1 0 4 1 1 1 1 1

Total # of neighbors = 599037
Ave neighs/atom = 372.53545
Ave special neighs/atom = 1.8656716
Neighbor list builds = 204
Dangerous builds = 0

unfix integrate
fix integrate all nvt temp ${Temp} ${Temp} 100.0
fix integrate all nvt temp 298.15 ${Temp} 100.0
fix integrate all nvt temp 298.15 298.15 100.0
# continuing the initialization with the final value of timestep
timestep ${tstep}
timestep 1

run ${Ninvt}
run 2500000
PPPM initialization ...
  extracting TIP4P info from pair style
  using 12-bit tables for long-range coulomb (../kspace.cpp:342)
  G vector (1/distance) = 0.31040912
  grid = 24 24 24
  stencil order = 5
  estimated absolute RMS force accuracy = 0.003756879
  estimated relative force accuracy = 1.1313729e-05
  using double precision KISS FFT
  3d grid and FFT values/proc = 5415 1152
Generated 0 of 6 mixed pair_coeff terms from arithmetic mixing rule
Per MPI rank memory allocation (min/avg/max) = 8.661 | 8.666 | 8.67 Mbytes
   Step        Density          Temp          Press          TotEng    
   5050000   1.114167       300.88279     -1439.0257     -13921.537    
   5100000   1.114167       295.1161      -624.0499      -13923.401    
   5200000   1.114167       292.78009      55.015149     -13921.268    
   5300000   1.114167       305.50254      399.75342     -13910.413    
   5400000   1.114167       307.14828     -839.15381     -13824.856    
   5500000   1.114167       292.49173      1527.1911     -13938.191    
   5600000   1.114167       293.81098      542.46866     -13911.471    
   5700000   1.114167       289.59644      129.62869     -14045.598    
   5800000   1.114167       298.6418       284.26541     -13903.488    
   5900000   1.114167       305.1167       720.83326     -13878.262    
   6000000   1.114167       302.51339      828.07255     -13847.707    
   6100000   1.114167       291.02585     -149.73424     -13912.475    
   6200000   1.114167       298.7929      -125.87374     -13962.786    
   6300000   1.114167       293.31521     -31.009589     -13990.397    
   6400000   1.114167       303.13358     -915.31621     -13899.835    
   6500000   1.114167       299.98062      155.37744     -13870.853    
   6600000   1.114167       304.84762      986.91635     -13904.679    
   6700000   1.114167       319.24057      1131.161      -13835.297    
   6800000   1.114167       297.02244     -137.95471     -13901        
   6900000   1.114167       290.65369      12.221481     -13923.504    
   7000000   1.114167       312.02951     -807.0915      -13827.131    
   7100000   1.114167       293.90523     -886.56939     -13953.73     
   7200000   1.114167       299.43073     -180.70405     -13930.394    
   7300000   1.114167       289.63806     -952.19177     -14008.32     
   7400000   1.114167       311.68079      1410.6914     -13887.427    
   7500000   1.114167       303.41608      1730.6603     -13905.507    
   7550000   1.114167       291.69609      539.21899     -13904.992    
Loop time of 8017.43 on 12 procs for 2500000 steps with 1608 atoms

Performance: 26.941 ns/day, 0.891 hours/ns, 311.821 timesteps/s
94.0% CPU use with 12 MPI tasks x no OpenMP threads

MPI task timing breakdown:
Section |  min time  |  avg time  |  max time  |%varavg| %total
---------------------------------------------------------------
Pair    | 4508.7     | 4860.6     | 5096.2     | 300.7 | 60.63
Bond    | 0.64089    | 0.96068    | 1.2395     |  19.2 |  0.01
Kspace  | 2045       | 2283.6     | 2634.3     | 439.3 | 28.48
Neigh   | 212.35     | 212.51     | 212.63     |   0.6 |  2.65
Comm    | 340.52     | 344.38     | 348.63     |  12.0 |  4.30
Output  | 0.11194    | 0.11221    | 0.11503    |   0.3 |  0.00
Modify  | 270.63     | 272.35     | 274.42     |   7.1 |  3.40
Other   |            | 42.94      |            |       |  0.54

Nlocal:            134 ave         142 max         128 min
Histogram: 3 2 1 1 0 0 1 1 1 2
Nghost:        4302.25 ave        4376 max        4237 min
Histogram: 1 2 0 1 2 3 0 2 0 1
Neighs:        49945.8 ave       54244 max       46444 min
Histogram: 2 0 3 0 3 1 0 1 0 2

Total # of neighbors = 599350
Ave neighs/atom = 372.7301
Ave special neighs/atom = 1.8656716
Neighbor list builds = 100806
Dangerous builds = 0

reset_timestep 0

#################### 2) Production in NVT ensemble #####################
# computing average total energy, pontential energy, temperature, and pressure over time
variable TotEn equal etotal
fix TEAve all ave/time ${Ne} ${Nr} ${Nf} v_TotEn file TotalE.dat
fix TEAve all ave/time 1 ${Nr} ${Nf} v_TotEn file TotalE.dat
fix TEAve all ave/time 1 100000 ${Nf} v_TotEn file TotalE.dat
fix TEAve all ave/time 1 100000 100000 v_TotEn file TotalE.dat

variable PotEn equal pe
fix PEAve all ave/time ${Ne} ${Nr} ${Nf} v_PotEn file PotenE.dat
fix PEAve all ave/time 1 ${Nr} ${Nf} v_PotEn file PotenE.dat
fix PEAve all ave/time 1 100000 ${Nf} v_PotEn file PotenE.dat
fix PEAve all ave/time 1 100000 100000 v_PotEn file PotenE.dat

compute T all temp
fix TempAve all ave/time ${Ne} ${Nr} ${Nf} c_T file temperature.dat
fix TempAve all ave/time 1 ${Nr} ${Nf} c_T file temperature.dat
fix TempAve all ave/time 1 100000 ${Nf} c_T file temperature.dat
fix TempAve all ave/time 1 100000 100000 c_T file temperature.dat

compute P all pressure T
fix PressAve all ave/time ${Ne} ${Nr} ${Nf} c_P file pressure.dat
fix PressAve all ave/time 1 ${Nr} ${Nf} c_P file pressure.dat
fix PressAve all ave/time 1 100000 ${Nf} c_P file pressure.dat
fix PressAve all ave/time 1 100000 100000 c_P file pressure.dat


# computing self-diffusion and Onsager coefficients using the OCTP plugin
compute positions all position
fix f1 all ordern diffusivity ${Ndiff} ${Nwrit} c_positions nb ${nb} nbe ${nbe}
fix f1 all ordern diffusivity 1000 ${Nwrit} c_positions nb ${nb} nbe ${nbe}
fix f1 all ordern diffusivity 1000 100000 c_positions nb ${nb} nbe ${nbe}
fix f1 all ordern diffusivity 1000 100000 c_positions nb 10 nbe ${nbe}
fix f1 all ordern diffusivity 1000 100000 c_positions nb 10 nbe 20


# computing shear and bulk viscosities  using the OCTP plugin
fix f2 all ordern viscosity ${Nvisc} ${Nwrit} c_P nb ${nb} nbe ${nbe}
fix f2 all ordern viscosity 5 ${Nwrit} c_P nb ${nb} nbe ${nbe}
fix f2 all ordern viscosity 5 100000 c_P nb ${nb} nbe ${nbe}
fix f2 all ordern viscosity 5 100000 c_P nb 10 nbe ${nbe}
fix f2 all ordern viscosity 5 100000 c_P nb 10 nbe 20


# computing thermal conductivity using the OCTP plugin
compute KE all ke/atom
compute PE all pe/atom
compute ST all stress/atom NULL virial
compute heatflux all heat/flux KE PE ST
fix f3 all ordern thermalconductivity ${Ncond} ${Nwrit} c_heatflux nb ${nb} nbe ${nbe}
fix f3 all ordern thermalconductivity 5 ${Nwrit} c_heatflux nb ${nb} nbe ${nbe}
fix f3 all ordern thermalconductivity 5 100000 c_heatflux nb ${nb} nbe ${nbe}
fix f3 all ordern thermalconductivity 5 100000 c_heatflux nb 10 nbe ${nbe}
fix f3 all ordern thermalconductivity 5 100000 c_heatflux nb 10 nbe 20


# computing the RDF for all group pairs
compute rdfs all rdf/ext Nbin ${binnum} Nwrite ${Nrdfw}
compute rdfs all rdf/ext Nbin 2000 Nwrite ${Nrdfw}
compute rdfs all rdf/ext Nbin 2000 Nwrite 1000
fix f4 all ave/time 1 1 ${Nrdfe} c_rdfs
fix f4 all ave/time 1 1 1000 c_rdfs

dump trjectory all xyz ${Nd} movie.xyz
dump trjectory all xyz 100000 movie.xyz
dump_modify trjectory element Ow H K Cl

run ${Nrun1}
run 250000

CITE-CITE-CITE-CITE-CITE-CITE-CITE-CITE-CITE-CITE-CITE-CITE-CITE

Your simulation uses code contributions which should be cited:

- fix ave/ordern command:

@Article{Jamali2019,
 author = {Jamali, Seyed Hossein and Wolf, Ludger and Becker, Tim M. and de Groen, Mariëtte and Ramdin, Mahinder and Hartkamp, Remco and Bardow, André and Vlugt, Thijs J. H. and Moultos, Othonas A.},
 title = {OCTP: A Tool for On-the-Fly Calculation of Transport Properties of Fluids with the Order-n Algorithm in LAMMPS},
 doi = {10.1021/acs.jcim.8b00939},
 journal = {J. Chem. Inf. Model.},
 year = {2019},
 volume = {59},
 pages = {1290-1294}
 }

CITE-CITE-CITE-CITE-CITE-CITE-CITE-CITE-CITE-CITE-CITE-CITE-CITE

PPPM initialization ...
  extracting TIP4P info from pair style
  using 12-bit tables for long-range coulomb (../kspace.cpp:342)
  G vector (1/distance) = 0.31040912
  grid = 24 24 24
  stencil order = 5
  estimated absolute RMS force accuracy = 0.003756879
  estimated relative force accuracy = 1.1313729e-05
  using double precision KISS FFT
  3d grid and FFT values/proc = 5415 1152
Generated 0 of 6 mixed pair_coeff terms from arithmetic mixing rule
Per MPI rank memory allocation (min/avg/max) = 14.4 | 14.41 | 14.41 Mbytes
   Step        Density          Temp          Press          TotEng    
         0   1.114167       291.69609      539.07015     -13904.992    
    100000   1.114167       300.02156      897.48634     -13905.921    
    200000   1.114167       301.34071      156.01203     -13937.31     
    250000   1.114167       295.79677     -357.67689     -14023.746    
Loop time of 1272.42 on 12 procs for 250000 steps with 1608 atoms

Performance: 16.976 ns/day, 1.414 hours/ns, 196.476 timesteps/s
93.9% CPU use with 12 MPI tasks x no OpenMP threads

MPI task timing breakdown:
Section |  min time  |  avg time  |  max time  |%varavg| %total
---------------------------------------------------------------
Pair    | 728.21     | 790.72     | 847.93     | 138.0 | 62.14
Bond    | 3.3804     | 3.4842     | 3.5452     |   2.3 |  0.27
Kspace  | 285.73     | 343.31     | 405.83     | 210.0 | 26.98
Neigh   | 21.239     | 21.254     | 21.263     |   0.2 |  1.67
Comm    | 35.496     | 35.742     | 36.069     |   2.8 |  2.81
Output  | 0.072887   | 0.073466   | 0.07407    |   0.1 |  0.01
Modify  | 72.884     | 73.002     | 73.17      |   0.9 |  5.74
Other   |            | 4.841      |            |       |  0.38

Nlocal:            134 ave         142 max         123 min
Histogram: 1 0 1 1 2 2 0 1 3 1
Nghost:         4306.5 ave        4340 max        4262 min
Histogram: 1 2 0 1 1 0 0 5 0 2
Neighs:        49927.4 ave       56452 max       45205 min
Histogram: 2 1 0 2 3 1 2 0 0 1

Total # of neighbors = 599129
Ave neighs/atom = 372.59266
Ave special neighs/atom = 1.8656716
Neighbor list builds = 10086
Dangerous builds = 0
shell bash copy_files.sh dt_${tstep} 00.25Mstep
shell bash copy_files.sh dt_1 00.25Mstep

run ${Nrun1}
run 250000
PPPM initialization ...
  extracting TIP4P info from pair style
  using 12-bit tables for long-range coulomb (../kspace.cpp:342)
  G vector (1/distance) = 0.31040912
  grid = 24 24 24
  stencil order = 5
  estimated absolute RMS force accuracy = 0.003756879
  estimated relative force accuracy = 1.1313729e-05
  using double precision KISS FFT
  3d grid and FFT values/proc = 5415 1152
Generated 0 of 6 mixed pair_coeff terms from arithmetic mixing rule
Per MPI rank memory allocation (min/avg/max) = 14.4 | 14.41 | 14.41 Mbytes
   Step        Density          Temp          Press          TotEng    
    250000   1.114167       295.79677     -357.38322     -14023.746    
    300000   1.114167       294.38035      661.43708     -13915.7      
    400000   1.114167       287.66292      42.015086     -13892.466    
    500000   1.114167       294.24965      656.09649     -13920.062    
Loop time of 1274.42 on 12 procs for 250000 steps with 1608 atoms

Performance: 16.949 ns/day, 1.416 hours/ns, 196.167 timesteps/s
93.9% CPU use with 12 MPI tasks x no OpenMP threads

MPI task timing breakdown:
Section |  min time  |  avg time  |  max time  |%varavg| %total
---------------------------------------------------------------
Pair    | 735.09     | 791.78     | 845.7      | 128.8 | 62.13
Bond    | 3.386      | 3.4823     | 3.5428     |   2.0 |  0.27
Kspace  | 289.91     | 344.2      | 400.93     | 195.8 | 27.01
Neigh   | 21.314     | 21.327     | 21.34      |   0.2 |  1.67
Comm    | 35.485     | 35.715     | 35.976     |   2.6 |  2.80
Output  | 0.10667    | 0.107      | 0.1074     |   0.1 |  0.01
Modify  | 72.785     | 72.975     | 73.178     |   1.2 |  5.73
Other   |            | 4.843      |            |       |  0.38

Nlocal:            134 ave         143 max         125 min
Histogram: 1 2 2 0 0 1 3 0 1 2
Nghost:         4295.5 ave        4323 max        4274 min
Histogram: 3 1 0 0 2 3 1 0 1 1
Neighs:        49937.5 ave       56160 max       44723 min
Histogram: 1 3 2 0 1 1 0 1 1 2

Total # of neighbors = 599250
Ave neighs/atom = 372.66791
Ave special neighs/atom = 1.8656716
Neighbor list builds = 10094
Dangerous builds = 0
shell bash copy_files.sh dt_${tstep} 00.50Mstep
shell bash copy_files.sh dt_1 00.50Mstep

run ${Nrun1}
run 250000
PPPM initialization ...
  extracting TIP4P info from pair style
  using 12-bit tables for long-range coulomb (../kspace.cpp:342)
  G vector (1/distance) = 0.31040912
  grid = 24 24 24
  stencil order = 5
  estimated absolute RMS force accuracy = 0.003756879
  estimated relative force accuracy = 1.1313729e-05
  using double precision KISS FFT
  3d grid and FFT values/proc = 5415 1152
Generated 0 of 6 mixed pair_coeff terms from arithmetic mixing rule
Per MPI rank memory allocation (min/avg/max) = 14.4 | 14.41 | 14.41 Mbytes
   Step        Density          Temp          Press          TotEng    
    500000   1.114167       294.24965      655.95186     -13920.062    
    600000   1.114167       278.2914      -404.96882     -14008.557    
    700000   1.114167       306.46409     -790.12637     -13888.52     
    750000   1.114167       287.02972     -1257.2733     -13971.354    
Loop time of 1272.25 on 12 procs for 250000 steps with 1608 atoms

Performance: 16.978 ns/day, 1.414 hours/ns, 196.502 timesteps/s
93.8% CPU use with 12 MPI tasks x no OpenMP threads

MPI task timing breakdown:
Section |  min time  |  avg time  |  max time  |%varavg| %total
---------------------------------------------------------------
Pair    | 727.06     | 788.62     | 839.26     | 141.1 | 61.99
Bond    | 3.346      | 3.4657     | 3.5268     |   2.6 |  0.27
Kspace  | 294.18     | 345.2      | 406.85     | 213.9 | 27.13
Neigh   | 21.284     | 21.296     | 21.307     |   0.2 |  1.67
Comm    | 35.547     | 35.748     | 36.037     |   2.6 |  2.81
Output  | 0.071839   | 0.072227   | 0.07295    |   0.1 |  0.01
Modify  | 72.888     | 73.002     | 73.117     |   0.7 |  5.74
Other   |            | 4.85       |            |       |  0.38

Nlocal:            134 ave         146 max         125 min
Histogram: 2 0 2 2 0 4 0 1 0 1
Nghost:        4305.42 ave        4364 max        4255 min
Histogram: 1 1 2 1 2 1 1 2 0 1
Neighs:        49900.2 ave       54995 max       43525 min
Histogram: 2 0 1 0 2 1 0 3 1 2

Total # of neighbors = 598802
Ave neighs/atom = 372.3893
Ave special neighs/atom = 1.8656716
Neighbor list builds = 10076
Dangerous builds = 0
shell bash copy_files.sh dt_${tstep} 00.75Mstep
shell bash copy_files.sh dt_1 00.75Mstep

run ${Nrun1}
run 250000
PPPM initialization ...
  extracting TIP4P info from pair style
  using 12-bit tables for long-range coulomb (../kspace.cpp:342)
  G vector (1/distance) = 0.31040912
  grid = 24 24 24
  stencil order = 5
  estimated absolute RMS force accuracy = 0.003756879
  estimated relative force accuracy = 1.1313729e-05
  using double precision KISS FFT
  3d grid and FFT values/proc = 5415 1152
Generated 0 of 6 mixed pair_coeff terms from arithmetic mixing rule
Per MPI rank memory allocation (min/avg/max) = 14.4 | 14.41 | 14.41 Mbytes
   Step        Density          Temp          Press          TotEng    
    750000   1.114167       287.02972     -1257.1821     -13971.354    
    800000   1.114167       302.19388     -483.38429     -13951.567    
    900000   1.114167       309.48986      964.97816     -13856.078    
   1000000   1.114167       289.77199      655.42409     -14033.931    
Loop time of 1271.19 on 12 procs for 250000 steps with 1608 atoms

Performance: 16.992 ns/day, 1.412 hours/ns, 196.666 timesteps/s
94.0% CPU use with 12 MPI tasks x no OpenMP threads

MPI task timing breakdown:
Section |  min time  |  avg time  |  max time  |%varavg| %total
---------------------------------------------------------------
Pair    | 728.74     | 791.88     | 846.43     | 132.0 | 62.29
Bond    | 3.3748     | 3.4834     | 3.5462     |   2.6 |  0.27
Kspace  | 286.09     | 340.96     | 404.29     | 201.8 | 26.82
Neigh   | 21.245     | 21.263     | 21.277     |   0.2 |  1.67
Comm    | 35.473     | 35.671     | 35.862     |   1.9 |  2.81
Output  | 0.10721    | 0.10749    | 0.10802    |   0.1 |  0.01
Modify  | 72.778     | 72.964     | 73.133     |   1.1 |  5.74
Other   |            | 4.859      |            |       |  0.38

Nlocal:            134 ave         143 max         123 min
Histogram: 1 1 0 2 1 0 2 2 1 2
Nghost:        4313.25 ave        4344 max        4288 min
Histogram: 1 2 1 2 1 1 1 2 0 1
Neighs:        49917.5 ave       55906 max       44822 min
Histogram: 1 2 1 0 3 2 1 1 0 1

Total # of neighbors = 599010
Ave neighs/atom = 372.51866
Ave special neighs/atom = 1.8656716
Neighbor list builds = 10085
Dangerous builds = 0
shell bash copy_files.sh dt_${tstep} 01.00Mstep
shell bash copy_files.sh dt_1 01.00Mstep

run ${Nrun1}
run 250000
PPPM initialization ...
  extracting TIP4P info from pair style
  using 12-bit tables for long-range coulomb (../kspace.cpp:342)
  G vector (1/distance) = 0.31040912
  grid = 24 24 24
  stencil order = 5
  estimated absolute RMS force accuracy = 0.003756879
  estimated relative force accuracy = 1.1313729e-05
  using double precision KISS FFT
  3d grid and FFT values/proc = 5415 1152
Generated 0 of 6 mixed pair_coeff terms from arithmetic mixing rule
Per MPI rank memory allocation (min/avg/max) = 14.4 | 14.41 | 14.41 Mbytes
   Step        Density          Temp          Press          TotEng    
   1000000   1.114167       289.77199      655.45445     -14033.931    
   1100000   1.114167       298.11682     -710.87167     -13930.716    
   1200000   1.114167       300.07012     -187.96567     -13898.038    
   1250000   1.114167       308.18238      1034.3491     -13813.394    
Loop time of 1280.03 on 12 procs for 250000 steps with 1608 atoms

Performance: 16.875 ns/day, 1.422 hours/ns, 195.308 timesteps/s
93.6% CPU use with 12 MPI tasks x no OpenMP threads

MPI task timing breakdown:
Section |  min time  |  avg time  |  max time  |%varavg| %total
---------------------------------------------------------------
Pair    | 722.54     | 790.6      | 849.09     | 150.8 | 61.76
Bond    | 3.3821     | 3.4617     | 3.5421     |   2.4 |  0.27
Kspace  | 292.33     | 350.99     | 419.25     | 226.8 | 27.42
Neigh   | 21.348     | 21.363     | 21.375     |   0.2 |  1.67
Comm    | 35.484     | 35.728     | 35.964     |   2.6 |  2.79
Output  | 0.071776   | 0.072014   | 0.072458   |   0.1 |  0.01
Modify  | 72.819     | 72.97      | 73.113     |   1.1 |  5.70
Other   |            | 4.85       |            |       |  0.38

Nlocal:            134 ave         139 max         126 min
Histogram: 1 0 1 0 2 1 3 0 2 2
Nghost:        4283.17 ave        4338 max        4245 min
Histogram: 1 2 2 2 2 0 0 1 1 1
Neighs:        49941.6 ave       55273 max       45574 min
Histogram: 1 2 2 1 1 1 1 1 1 1

Total # of neighbors = 599299
Ave neighs/atom = 372.69838
Ave special neighs/atom = 1.8656716
Neighbor list builds = 10092
Dangerous builds = 0
shell bash copy_files.sh dt_${tstep} 01.25Mstep
shell bash copy_files.sh dt_1 01.25Mstep

run ${Nrun1}
run 250000
PPPM initialization ...
  extracting TIP4P info from pair style
  using 12-bit tables for long-range coulomb (../kspace.cpp:342)
  G vector (1/distance) = 0.31040912
  grid = 24 24 24
  stencil order = 5
  estimated absolute RMS force accuracy = 0.003756879
  estimated relative force accuracy = 1.1313729e-05
  using double precision KISS FFT
  3d grid and FFT values/proc = 5415 1152
Generated 0 of 6 mixed pair_coeff terms from arithmetic mixing rule
Per MPI rank memory allocation (min/avg/max) = 14.4 | 14.41 | 14.41 Mbytes
   Step        Density          Temp          Press          TotEng    
   1250000   1.114167       308.18238      1033.8346     -13813.394    
   1300000   1.114167       308.81221     -61.075698     -13905.969    
   1400000   1.114167       293.62905     -220.7358      -13937.459    
   1500000   1.114167       300.82107     -1883.6678     -13955.639    
Loop time of 1279.86 on 12 procs for 250000 steps with 1608 atoms

Performance: 16.877 ns/day, 1.422 hours/ns, 195.334 timesteps/s
93.5% CPU use with 12 MPI tasks x no OpenMP threads

MPI task timing breakdown:
Section |  min time  |  avg time  |  max time  |%varavg| %total
---------------------------------------------------------------
Pair    | 725.78     | 789.69     | 849.77     | 147.1 | 61.70
Bond    | 3.3605     | 3.4659     | 3.5181     |   2.1 |  0.27
Kspace  | 291.45     | 351.65     | 415.65     | 221.0 | 27.48
Neigh   | 21.404     | 21.415     | 21.426     |   0.1 |  1.67
Comm    | 35.486     | 35.746     | 35.985     |   2.5 |  2.79
Output  | 0.10713    | 0.10759    | 0.10801    |   0.1 |  0.01
Modify  | 72.793     | 72.929     | 73.075     |   1.0 |  5.70
Other   |            | 4.853      |            |       |  0.38

Nlocal:            134 ave         142 max         126 min
Histogram: 1 1 1 3 0 0 4 0 0 2
Nghost:        4346.75 ave        4396 max        4298 min
Histogram: 2 0 0 2 3 2 0 1 1 1
Neighs:        49905.2 ave       56784 max       45179 min
Histogram: 1 3 2 1 1 1 0 1 0 2

Total # of neighbors = 598862
Ave neighs/atom = 372.42662
Ave special neighs/atom = 1.8656716
Neighbor list builds = 10102
Dangerous builds = 0
shell bash copy_files.sh dt_${tstep} 01.50Mstep
shell bash copy_files.sh dt_1 01.50Mstep

run ${Nrun1}
run 250000
PPPM initialization ...
  extracting TIP4P info from pair style
  using 12-bit tables for long-range coulomb (../kspace.cpp:342)
  G vector (1/distance) = 0.31040912
  grid = 24 24 24
  stencil order = 5
  estimated absolute RMS force accuracy = 0.003756879
  estimated relative force accuracy = 1.1313729e-05
  using double precision KISS FFT
  3d grid and FFT values/proc = 5415 1152
Generated 0 of 6 mixed pair_coeff terms from arithmetic mixing rule
Per MPI rank memory allocation (min/avg/max) = 14.4 | 14.41 | 14.41 Mbytes
   Step        Density          Temp          Press          TotEng    
   1500000   1.114167       300.82107     -1883.837      -13955.639    
   1600000   1.114167       285.58724     -1517.2361     -13877.663    
   1700000   1.114167       295.85226     -497.00804     -13926.353    
   1750000   1.114167       298.28153     -298.59538     -13920.246    
Loop time of 1275.21 on 12 procs for 250000 steps with 1608 atoms

Performance: 16.938 ns/day, 1.417 hours/ns, 196.047 timesteps/s
93.7% CPU use with 12 MPI tasks x no OpenMP threads

MPI task timing breakdown:
Section |  min time  |  avg time  |  max time  |%varavg| %total
---------------------------------------------------------------
Pair    | 708.98     | 789.14     | 839.56     | 153.6 | 61.88
Bond    | 3.3561     | 3.4582     | 3.5242     |   2.4 |  0.27
Kspace  | 297.09     | 347.52     | 427.8      | 231.9 | 27.25
Neigh   | 21.387     | 21.4       | 21.411     |   0.1 |  1.68
Comm    | 35.533     | 35.773     | 36.024     |   2.7 |  2.81
Output  | 0.071577   | 0.071919   | 0.072527   |   0.1 |  0.01
Modify  | 72.879     | 72.982     | 73.118     |   0.8 |  5.72
Other   |            | 4.865      |            |       |  0.38

Nlocal:            134 ave         143 max         124 min
Histogram: 1 0 0 4 1 3 0 1 1 1
Nghost:        4289.17 ave        4337 max        4246 min
Histogram: 1 2 0 3 1 1 1 1 1 1
Neighs:        49933.3 ave       53984 max       45433 min
Histogram: 1 2 0 0 1 4 1 0 1 2

Total # of neighbors = 599200
Ave neighs/atom = 372.63682
Ave special neighs/atom = 1.8656716
Neighbor list builds = 10104
Dangerous builds = 0
shell bash copy_files.sh dt_${tstep} 01.75Mstep
shell bash copy_files.sh dt_1 01.75Mstep

run ${Nrun1}
run 250000
PPPM initialization ...
  extracting TIP4P info from pair style
  using 12-bit tables for long-range coulomb (../kspace.cpp:342)
  G vector (1/distance) = 0.31040912
  grid = 24 24 24
  stencil order = 5
  estimated absolute RMS force accuracy = 0.003756879
  estimated relative force accuracy = 1.1313729e-05
  using double precision KISS FFT
  3d grid and FFT values/proc = 5415 1152
Generated 0 of 6 mixed pair_coeff terms from arithmetic mixing rule
Per MPI rank memory allocation (min/avg/max) = 14.4 | 14.41 | 14.41 Mbytes
   Step        Density          Temp          Press          TotEng    
   1750000   1.114167       298.28153     -298.59536     -13920.246    
   1800000   1.114167       294.01782      403.77484     -13911.936    
   1900000   1.114167       305.63695      236.12598     -13934.123    
   2000000   1.114167       291.24511     -181.50739     -13903.923    
Loop time of 1270.61 on 12 procs for 250000 steps with 1608 atoms

Performance: 17.000 ns/day, 1.412 hours/ns, 196.756 timesteps/s
93.9% CPU use with 12 MPI tasks x no OpenMP threads

MPI task timing breakdown:
Section |  min time  |  avg time  |  max time  |%varavg| %total
---------------------------------------------------------------
Pair    | 722.11     | 789.29     | 848        | 140.1 | 62.12
Bond    | 3.3814     | 3.4745     | 3.5523     |   2.4 |  0.27
Kspace  | 284.21     | 342.88     | 410.17     | 212.9 | 26.99
Neigh   | 21.272     | 21.28      | 21.289     |   0.1 |  1.67
Comm    | 35.476     | 35.697     | 35.968     |   2.5 |  2.81
Output  | 0.10684    | 0.10719    | 0.10774    |   0.1 |  0.01
Modify  | 72.934     | 73.038     | 73.161     |   0.8 |  5.75
Other   |            | 4.847      |            |       |  0.38

Nlocal:            134 ave         145 max         122 min
Histogram: 1 0 2 0 3 1 3 1 0 1
Nghost:        4318.17 ave        4383 max        4251 min
Histogram: 2 0 1 1 3 1 1 0 1 2
Neighs:        49903.4 ave       56990 max       44960 min
Histogram: 3 2 0 1 2 1 0 0 1 2

Total # of neighbors = 598841
Ave neighs/atom = 372.41356
Ave special neighs/atom = 1.8656716
Neighbor list builds = 10085
Dangerous builds = 0
shell bash copy_files.sh dt_${tstep} 02.00step
shell bash copy_files.sh dt_1 02.00step

run ${Nrun2}
run 1000000
PPPM initialization ...
  extracting TIP4P info from pair style
  using 12-bit tables for long-range coulomb (../kspace.cpp:342)
  G vector (1/distance) = 0.31040912
  grid = 24 24 24
  stencil order = 5
  estimated absolute RMS force accuracy = 0.003756879
  estimated relative force accuracy = 1.1313729e-05
  using double precision KISS FFT
  3d grid and FFT values/proc = 5415 1152
Generated 0 of 6 mixed pair_coeff terms from arithmetic mixing rule
Per MPI rank memory allocation (min/avg/max) = 14.4 | 14.41 | 14.41 Mbytes
   Step        Density          Temp          Press          TotEng    
   2000000   1.114167       291.24511     -181.31601     -13903.923    
   2100000   1.114167       300.47075     -443.6221      -13973.074    
   2200000   1.114167       299.22725     -119.70127     -13889.564    
   2300000   1.114167       298.45022     -332.13709     -13958.855    
   2400000   1.114167       288.43235      97.536865     -13997.574    
   2500000   1.114167       297.80047      47.721434     -13915.287    
   2600000   1.114167       304.90664     -1420.999      -13820.019    
   2700000   1.114167       295.62617     -614.04971     -13990.149    
   2800000   1.114167       311.3491       678.9913      -13926.207    
   2900000   1.114167       294.9009       457.25061     -13922.207    
   3000000   1.114167       291.25572      252.32888     -14004.247    
Loop time of 5080 on 12 procs for 1000000 steps with 1608 atoms

Performance: 17.008 ns/day, 1.411 hours/ns, 196.851 timesteps/s
93.9% CPU use with 12 MPI tasks x no OpenMP threads

MPI task timing breakdown:
Section |  min time  |  avg time  |  max time  |%varavg| %total
---------------------------------------------------------------
Pair    | 2915.1     | 3152.9     | 3338       | 258.7 | 62.07
Bond    | 13.603     | 13.92      | 14.198     |   4.1 |  0.27
Kspace  | 1186.5     | 1373.2     | 1611.3     | 393.0 | 27.03
Neigh   | 85.036     | 85.084     | 85.118     |   0.2 |  1.67
Comm    | 141.93     | 142.94     | 144.22     |   5.6 |  2.81
Output  | 0.35583    | 0.35726    | 0.35878    |   0.1 |  0.01
Modify  | 291.78     | 292.17     | 292.71     |   1.6 |  5.75
Other   |            | 19.38      |            |       |  0.38

Nlocal:            134 ave         144 max         120 min
Histogram: 1 0 1 0 2 2 3 0 1 2
Nghost:        4301.92 ave        4366 max        4237 min
Histogram: 2 0 2 1 0 1 3 1 1 1
Neighs:        49923.8 ave       54915 max       42387 min
Histogram: 1 0 0 0 3 2 2 2 0 2

Total # of neighbors = 599085
Ave neighs/atom = 372.5653
Ave special neighs/atom = 1.8656716
Neighbor list builds = 40308
Dangerous builds = 0
shell bash copy_files.sh dt_${tstep} 03.00Mstep
shell bash copy_files.sh dt_1 03.00Mstep

run ${Nrun2}
run 1000000
PPPM initialization ...
  extracting TIP4P info from pair style
  using 12-bit tables for long-range coulomb (../kspace.cpp:342)
  G vector (1/distance) = 0.31040912
  grid = 24 24 24
  stencil order = 5
  estimated absolute RMS force accuracy = 0.003756879
  estimated relative force accuracy = 1.1313729e-05
  using double precision KISS FFT
  3d grid and FFT values/proc = 5415 1152
Generated 0 of 6 mixed pair_coeff terms from arithmetic mixing rule
Per MPI rank memory allocation (min/avg/max) = 14.4 | 14.41 | 14.41 Mbytes
   Step        Density          Temp          Press          TotEng    
   3000000   1.114167       291.25572      252.6757      -14004.247    
   3100000   1.114167       299.965        582.71169     -13880.925    
   3200000   1.114167       299.3834       262.04549     -13923.359    
   3300000   1.114167       308.84443     -1083.5377     -13931.258    
   3400000   1.114167       293.97136     -755.50949     -13946.768    
   3500000   1.114167       294.59223      884.71339     -13961.416    
   3600000   1.114167       293.65359      149.65081     -13909.53     
   3700000   1.114167       306.17755      67.086519     -13884.142    
   3800000   1.114167       298.15711     -268.85905     -13950.564    
   3900000   1.114167       291.18363     -548.50431     -13958.218    
   4000000   1.114167       292.10582     -171.63577     -13944.092    
Loop time of 5090.92 on 12 procs for 1000000 steps with 1608 atoms

Performance: 16.971 ns/day, 1.414 hours/ns, 196.428 timesteps/s
93.7% CPU use with 12 MPI tasks x no OpenMP threads

MPI task timing breakdown:
Section |  min time  |  avg time  |  max time  |%varavg| %total
---------------------------------------------------------------
Pair    | 2925.2     | 3150.9     | 3352.2     | 271.2 | 61.89
Bond    | 13.597     | 13.915     | 14.125     |   3.6 |  0.27
Kspace  | 1184.3     | 1386.1     | 1612       | 409.9 | 27.23
Neigh   | 85.198     | 85.241     | 85.288     |   0.3 |  1.67
Comm    | 142.15     | 142.92     | 143.88     |   4.5 |  2.81
Output  | 0.3567     | 0.35723    | 0.35839    |   0.1 |  0.01
Modify  | 291.61     | 292.09     | 292.69     |   1.8 |  5.74
Other   |            | 19.46      |            |       |  0.38

Nlocal:            134 ave         140 max         123 min
Histogram: 1 0 1 1 0 1 1 2 3 2
Nghost:        4294.42 ave        4336 max        4236 min
Histogram: 2 0 0 0 1 2 3 1 2 1
Neighs:        49921.9 ave       55869 max       43772 min
Histogram: 1 1 2 1 1 1 1 2 1 1

Total # of neighbors = 599063
Ave neighs/atom = 372.55162
Ave special neighs/atom = 1.8656716
Neighbor list builds = 40344
Dangerous builds = 0
shell bash copy_files.sh dt_${tstep} 04.00Mstep
shell bash copy_files.sh dt_1 04.00Mstep

run ${Nrun2}
run 1000000
PPPM initialization ...
  extracting TIP4P info from pair style
  using 12-bit tables for long-range coulomb (../kspace.cpp:342)
  G vector (1/distance) = 0.31040912
  grid = 24 24 24
  stencil order = 5
  estimated absolute RMS force accuracy = 0.003756879
  estimated relative force accuracy = 1.1313729e-05
  using double precision KISS FFT
  3d grid and FFT values/proc = 5415 1152
Generated 0 of 6 mixed pair_coeff terms from arithmetic mixing rule
Per MPI rank memory allocation (min/avg/max) = 14.4 | 14.41 | 14.41 Mbytes
   Step        Density          Temp          Press          TotEng    
   4000000   1.114167       292.10582     -171.99945     -13944.092    
   4100000   1.114167       299.74516     -138.31652     -13902.7      
   4200000   1.114167       293.55866      1263.3837     -13968.122    
   4300000   1.114167       303.11254      196.95479     -13895.309    
   4400000   1.114167       297.45354      209.98909     -13932.988    
   4500000   1.114167       291.21205     -509.59758     -14007.758    
   4600000   1.114167       299.72523     -26.605789     -13903.466    
   4700000   1.114167       290.54674      408.32023     -13933.603    
   4800000   1.114167       277.64265      913.12845     -13944.264    
   4900000   1.114167       297.06122      42.966639     -13968.345    
   5000000   1.114167       314.87555      84.960015     -13893.699    
Loop time of 5094.4 on 12 procs for 1000000 steps with 1608 atoms

Performance: 16.960 ns/day, 1.415 hours/ns, 196.294 timesteps/s
93.8% CPU use with 12 MPI tasks x no OpenMP threads

MPI task timing breakdown:
Section |  min time  |  avg time  |  max time  |%varavg| %total
---------------------------------------------------------------
Pair    | 2927.4     | 3160.3     | 3368.1     | 265.5 | 62.03
Bond    | 13.436     | 13.895     | 14.066     |   4.6 |  0.27
Kspace  | 1171.5     | 1380.7     | 1614.1     | 402.8 | 27.10
Neigh   | 85.178     | 85.228     | 85.283     |   0.3 |  1.67
Comm    | 142.06     | 142.68     | 143.52     |   4.0 |  2.80
Output  | 0.35583    | 0.35668    | 0.35837    |   0.1 |  0.01
Modify  | 291.45     | 291.87     | 292.54     |   1.9 |  5.73
Other   |            | 19.45      |            |       |  0.38

Nlocal:            134 ave         147 max         125 min
Histogram: 2 1 2 2 0 2 1 1 0 1
Nghost:        4261.92 ave        4346 max        4185 min
Histogram: 2 1 1 1 0 3 2 0 0 2
Neighs:        49928.3 ave       55090 max       46170 min
Histogram: 3 2 0 0 3 1 0 0 2 1

Total # of neighbors = 599140
Ave neighs/atom = 372.5995
Ave special neighs/atom = 1.8656716
Neighbor list builds = 40381
Dangerous builds = 0
shell bash copy_files.sh dt_${tstep} 05.00Mstep
shell bash copy_files.sh dt_1 05.00Mstep

run ${Nrun2}
run 1000000
PPPM initialization ...
  extracting TIP4P info from pair style
  using 12-bit tables for long-range coulomb (../kspace.cpp:342)
  G vector (1/distance) = 0.31040912
  grid = 24 24 24
  stencil order = 5
  estimated absolute RMS force accuracy = 0.003756879
  estimated relative force accuracy = 1.1313729e-05
  using double precision KISS FFT
  3d grid and FFT values/proc = 5415 1152
Generated 0 of 6 mixed pair_coeff terms from arithmetic mixing rule
Per MPI rank memory allocation (min/avg/max) = 14.4 | 14.41 | 14.41 Mbytes
   Step        Density          Temp          Press          TotEng    
   5000000   1.114167       314.87555      85.121475     -13893.699    
   5100000   1.114167       297.73507     -98.512084     -13940.895    
   5200000   1.114167       302.18011     -335.45443     -13912.704    
   5300000   1.114167       296.22226     -373.12434     -14032.528    
   5400000   1.114167       306.30693      49.240532     -13930.309    
   5500000   1.114167       285.55086      237.86588     -13975.216    
   5600000   1.114167       308.46929      1002.4166     -13881.057    
   5700000   1.114167       301.95052     -211.8729      -13900.221    
   5800000   1.114167       295.27177      1104.8145     -13978.433    
   5900000   1.114167       308.8942       1046.4169     -13901.111    
   6000000   1.114167       302.86747      995.15189     -13955.969    
Loop time of 5078.48 on 12 procs for 1000000 steps with 1608 atoms

Performance: 17.013 ns/day, 1.411 hours/ns, 196.909 timesteps/s
94.0% CPU use with 12 MPI tasks x no OpenMP threads

MPI task timing breakdown:
Section |  min time  |  avg time  |  max time  |%varavg| %total
---------------------------------------------------------------
Pair    | 2964.2     | 3163       | 3321.8     | 231.5 | 62.28
Bond    | 13.593     | 13.972     | 14.205     |   4.0 |  0.28
Kspace  | 1202.8     | 1361.7     | 1561.1     | 353.8 | 26.81
Neigh   | 85.023     | 85.072     | 85.115     |   0.3 |  1.68
Comm    | 142.37     | 142.95     | 144.12     |   4.3 |  2.81
Output  | 0.35584    | 0.35696    | 0.35945    |   0.1 |  0.01
Modify  | 291.45     | 292.01     | 292.77     |   2.2 |  5.75
Other   |            | 19.51      |            |       |  0.38

Nlocal:            134 ave         139 max         129 min
Histogram: 2 0 0 2 2 1 1 1 1 2
Nghost:        4292.17 ave        4325 max        4256 min
Histogram: 1 0 2 4 0 0 0 1 1 3
Neighs:        49900.4 ave       55613 max       44505 min
Histogram: 1 1 1 0 5 0 2 0 0 2

Total # of neighbors = 598805
Ave neighs/atom = 372.39117
Ave special neighs/atom = 1.8656716
Neighbor list builds = 40321
Dangerous builds = 0
shell bash copy_files.sh dt_${tstep} 06.00Mstep
shell bash copy_files.sh dt_1 06.00Mstep

run ${Nrun2}
run 1000000
PPPM initialization ...
  extracting TIP4P info from pair style
  using 12-bit tables for long-range coulomb (../kspace.cpp:342)
  G vector (1/distance) = 0.31040912
  grid = 24 24 24
  stencil order = 5
  estimated absolute RMS force accuracy = 0.003756879
  estimated relative force accuracy = 1.1313729e-05
  using double precision KISS FFT
  3d grid and FFT values/proc = 5415 1152
Generated 0 of 6 mixed pair_coeff terms from arithmetic mixing rule
Per MPI rank memory allocation (min/avg/max) = 14.4 | 14.41 | 14.41 Mbytes
   Step        Density          Temp          Press          TotEng    
   6000000   1.114167       302.86747      994.85787     -13955.969    
   6100000   1.114167       300.27536     -1138.579      -13840.652    
   6200000   1.114167       298.65646     -778.48853     -13959.758    
   6300000   1.114167       310.35287      432.19038     -13926.409    
   6400000   1.114167       294.99981     -1121.8129     -13853.373    
   6500000   1.114167       297.21373      514.01676     -13843.327    
   6600000   1.114167       291.43773      759.51976     -13945.833    
   6700000   1.114167       283.0776       64.429173     -13940.955    
   6800000   1.114167       312.58657     -845.30047     -13914.65     
   6900000   1.114167       304.28057     -1110.2968     -13887.837    
   7000000   1.114167       298.7277       276.83774     -13900.666    
Loop time of 5072.33 on 12 procs for 1000000 steps with 1608 atoms

Performance: 17.034 ns/day, 1.409 hours/ns, 197.148 timesteps/s
94.0% CPU use with 12 MPI tasks x no OpenMP threads

MPI task timing breakdown:
Section |  min time  |  avg time  |  max time  |%varavg| %total
---------------------------------------------------------------
Pair    | 2904.2     | 3158.1     | 3322.6     | 255.2 | 62.26
Bond    | 13.531     | 13.937     | 14.249     |   5.2 |  0.27
Kspace  | 1196.5     | 1360.9     | 1615.1     | 389.8 | 26.83
Neigh   | 85.05      | 85.089     | 85.125     |   0.2 |  1.68
Comm    | 141.87     | 142.74     | 143.91     |   4.9 |  2.81
Output  | 0.35651    | 0.35752    | 0.35896    |   0.1 |  0.01
Modify  | 291.42     | 291.81     | 292.44     |   1.7 |  5.75
Other   |            | 19.39      |            |       |  0.38

Nlocal:            134 ave         141 max         118 min
Histogram: 1 0 0 1 0 1 2 2 2 3
Nghost:        4291.08 ave        4334 max        4245 min
Histogram: 1 1 1 1 1 2 1 2 1 1
Neighs:          49935 ave       55679 max       42950 min
Histogram: 1 0 0 2 2 1 3 1 1 1

Total # of neighbors = 599220
Ave neighs/atom = 372.64925
Ave special neighs/atom = 1.8656716
Neighbor list builds = 40363
Dangerous builds = 0
shell bash copy_files.sh dt_${tstep} 07.00Mstep
shell bash copy_files.sh dt_1 07.00Mstep

run ${Nrun2}
run 1000000
PPPM initialization ...
  extracting TIP4P info from pair style
  using 12-bit tables for long-range coulomb (../kspace.cpp:342)
  G vector (1/distance) = 0.31040912
  grid = 24 24 24
  stencil order = 5
  estimated absolute RMS force accuracy = 0.003756879
  estimated relative force accuracy = 1.1313729e-05
  using double precision KISS FFT
  3d grid and FFT values/proc = 5415 1152
Generated 0 of 6 mixed pair_coeff terms from arithmetic mixing rule
Per MPI rank memory allocation (min/avg/max) = 14.4 | 14.41 | 14.41 Mbytes
   Step        Density          Temp          Press          TotEng    
   7000000   1.114167       298.7277       276.74467     -13900.666    
   7100000   1.114167       293.81478     -78.796426     -13918.331    
   7200000   1.114167       293.68085     -731.41394     -13977.016    
   7300000   1.114167       301.02808      512.70269     -13871.372    
   7400000   1.114167       305.83493     -965.63842     -13871.137    
   7500000   1.114167       295.33733     -297.03645     -13931.323    
   7600000   1.114167       295.48108      351.58009     -13895.485    
   7700000   1.114167       298.20084     -355.63825     -13888.372    
   7800000   1.114167       287.57871     -1313.6353     -14001.105    
   7900000   1.114167       294.45225     -730.36784     -13945.686    
   8000000   1.114167       296.4094       315.91871     -13969.132    
Loop time of 5084.15 on 12 procs for 1000000 steps with 1608 atoms

Performance: 16.994 ns/day, 1.412 hours/ns, 196.690 timesteps/s
93.9% CPU use with 12 MPI tasks x no OpenMP threads

MPI task timing breakdown:
Section |  min time  |  avg time  |  max time  |%varavg| %total
---------------------------------------------------------------
Pair    | 2944.4     | 3165.2     | 3334.8     | 250.5 | 62.26
Bond    | 13.559     | 13.938     | 14.193     |   4.2 |  0.27
Kspace  | 1195.5     | 1365.1     | 1586.2     | 382.4 | 26.85
Neigh   | 84.982     | 85.022     | 85.066     |   0.3 |  1.67
Comm    | 142        | 142.76     | 143.92     |   4.9 |  2.81
Output  | 0.35877    | 0.3595     | 0.36132    |   0.1 |  0.01
Modify  | 291.79     | 292.3      | 292.89     |   1.8 |  5.75
Other   |            | 19.45      |            |       |  0.38

Nlocal:            134 ave         150 max         117 min
Histogram: 1 0 0 2 4 2 0 1 1 1
Nghost:         4303.5 ave        4375 max        4217 min
Histogram: 1 0 2 3 0 0 1 0 4 1
Neighs:        49940.1 ave       55828 max       43453 min
Histogram: 1 1 1 1 2 1 1 1 1 2

Total # of neighbors = 599281
Ave neighs/atom = 372.68719
Ave special neighs/atom = 1.8656716
Neighbor list builds = 40318
Dangerous builds = 0
shell bash copy_files.sh dt_${tstep} 08.00Mstep
shell bash copy_files.sh dt_1 08.00Mstep

run ${Nrun2}
run 1000000
PPPM initialization ...
  extracting TIP4P info from pair style
  using 12-bit tables for long-range coulomb (../kspace.cpp:342)
  G vector (1/distance) = 0.31040912
  grid = 24 24 24
  stencil order = 5
  estimated absolute RMS force accuracy = 0.003756879
  estimated relative force accuracy = 1.1313729e-05
  using double precision KISS FFT
  3d grid and FFT values/proc = 5415 1152
Generated 0 of 6 mixed pair_coeff terms from arithmetic mixing rule
Per MPI rank memory allocation (min/avg/max) = 14.4 | 14.41 | 14.41 Mbytes
   Step        Density          Temp          Press          TotEng    
   8000000   1.114167       296.4094       315.81028     -13969.132    
   8100000   1.114167       300.59749      700.67946     -13973.65     
   8200000   1.114167       311.52464     -570.66747     -13891.04     
   8300000   1.114167       297.92341     -349.13289     -13932.818    
   8400000   1.114167       300.70968     -53.868603     -13916.675    
   8500000   1.114167       293.27251      269.14523     -13946.332    
   8600000   1.114167       291.97088      110.3677      -13911.514    
   8700000   1.114167       299.04481      37.346467     -13869.615    
   8800000   1.114167       300.68319      256.8137      -13917.523    
   8900000   1.114167       304.73971      565.89942     -13850.416    
   9000000   1.114167       291.74111     -286.97183     -13954.757    
Loop time of 5091.16 on 12 procs for 1000000 steps with 1608 atoms

Performance: 16.971 ns/day, 1.414 hours/ns, 196.419 timesteps/s
93.8% CPU use with 12 MPI tasks x no OpenMP threads

MPI task timing breakdown:
Section |  min time  |  avg time  |  max time  |%varavg| %total
---------------------------------------------------------------
Pair    | 2911.2     | 3160       | 3369       | 270.8 | 62.07
Bond    | 13.539     | 13.887     | 14.139     |   4.4 |  0.27
Kspace  | 1167.2     | 1377.5     | 1626.7     | 410.9 | 27.06
Neigh   | 85.351     | 85.388     | 85.411     |   0.2 |  1.68
Comm    | 141.86     | 142.72     | 143.65     |   4.8 |  2.80
Output  | 0.35859    | 0.35993    | 0.36237    |   0.2 |  0.01
Modify  | 291.19     | 291.74     | 292.29     |   1.9 |  5.73
Other   |            | 19.51      |            |       |  0.38

Nlocal:            134 ave         139 max         121 min
Histogram: 1 0 1 0 1 0 0 1 5 3
Nghost:        4302.83 ave        4413 max        4224 min
Histogram: 2 1 1 1 4 0 2 0 0 1
Neighs:        49916.1 ave       54213 max       41917 min
Histogram: 1 0 0 3 0 1 0 0 4 3

Total # of neighbors = 598993
Ave neighs/atom = 372.50808
Ave special neighs/atom = 1.8656716
Neighbor list builds = 40425
Dangerous builds = 0
shell bash copy_files.sh dt_${tstep} 09.00Mstep
shell bash copy_files.sh dt_1 09.00Mstep

run ${Nrun2}
run 1000000
PPPM initialization ...
  extracting TIP4P info from pair style
  using 12-bit tables for long-range coulomb (../kspace.cpp:342)
  G vector (1/distance) = 0.31040912
  grid = 24 24 24
  stencil order = 5
  estimated absolute RMS force accuracy = 0.003756879
  estimated relative force accuracy = 1.1313729e-05
  using double precision KISS FFT
  3d grid and FFT values/proc = 5415 1152
Generated 0 of 6 mixed pair_coeff terms from arithmetic mixing rule
Per MPI rank memory allocation (min/avg/max) = 14.4 | 14.41 | 14.41 Mbytes
   Step        Density          Temp          Press          TotEng    
   9000000   1.114167       291.74111     -287.41015     -13954.757    
   9100000   1.114167       305.16658     -536.03802     -13931.116    
   9200000   1.114167       296.57688     -395.93665     -13918.027    
   9300000   1.114167       305.40333      80.631693     -13865.756    
   9400000   1.114167       301.58316      306.79832     -13918.783    
   9500000   1.114167       295.46494      96.435018     -13908.753    
   9600000   1.114167       301.75429      766.28902     -13872.135    
   9700000   1.114167       291.52284     -782.87381     -14013.908    
   9800000   1.114167       288.00826     -406.93472     -13929.07     
   9900000   1.114167       301.35567     -789.71575     -13839.204    
  10000000   1.114167       289.9081       552.95383     -13912.232    
Loop time of 5091.73 on 12 procs for 1000000 steps with 1608 atoms

Performance: 16.969 ns/day, 1.414 hours/ns, 196.397 timesteps/s
93.8% CPU use with 12 MPI tasks x no OpenMP threads

MPI task timing breakdown:
Section |  min time  |  avg time  |  max time  |%varavg| %total
---------------------------------------------------------------
Pair    | 2898.7     | 3161.8     | 3377       | 264.9 | 62.10
Bond    | 13.5       | 13.873     | 14.072     |   3.7 |  0.27
Kspace  | 1159.8     | 1376.3     | 1639.8     | 402.5 | 27.03
Neigh   | 85.214     | 85.282     | 85.332     |   0.4 |  1.67
Comm    | 142.12     | 142.81     | 143.77     |   4.3 |  2.80
Output  | 0.35497    | 0.35583    | 0.35698    |   0.1 |  0.01
Modify  | 291.38     | 291.89     | 292.51     |   1.8 |  5.73
Other   |            | 19.47      |            |       |  0.38

Nlocal:            134 ave         141 max         129 min
Histogram: 3 1 1 2 0 1 1 1 1 1
Nghost:        4297.75 ave        4385 max        4220 min
Histogram: 1 1 3 1 2 0 0 1 2 1
Neighs:        49915.7 ave       55309 max       44888 min
Histogram: 3 1 0 1 2 0 0 2 2 1

Total # of neighbors = 598988
Ave neighs/atom = 372.50498
Ave special neighs/atom = 1.8656716
Neighbor list builds = 40384
Dangerous builds = 0
shell bash copy_files.sh dt_${tstep} 10.00Mstep
shell bash copy_files.sh dt_1 10.00Mstep

run ${Nrun3}
run 2500000
PPPM initialization ...
  extracting TIP4P info from pair style
  using 12-bit tables for long-range coulomb (../kspace.cpp:342)
  G vector (1/distance) = 0.31040912
  grid = 24 24 24
  stencil order = 5
  estimated absolute RMS force accuracy = 0.003756879
  estimated relative force accuracy = 1.1313729e-05
  using double precision KISS FFT
  3d grid and FFT values/proc = 5415 1152
Generated 0 of 6 mixed pair_coeff terms from arithmetic mixing rule
Per MPI rank memory allocation (min/avg/max) = 14.4 | 14.41 | 14.41 Mbytes
   Step        Density          Temp          Press          TotEng    
  10000000   1.114167       289.9081       552.79354     -13912.232    
  10100000   1.114167       284.60474      728.2779      -14001.552    
  10200000   1.114167       293.64358      431.66811     -13917.288    
  10300000   1.114167       282.5043      -160.46856     -13985.025    
  10400000   1.114167       294.04455     -379.28038     -13937.287    
  10500000   1.114167       287.99038     -343.3239      -13960.855    
  10600000   1.114167       295.60916      363.14932     -13952.812    
  10700000   1.114167       285.87576      248.69492     -13917.266    
  10800000   1.114167       296.67892     -639.40313     -13993.464    
  10900000   1.114167       287.13521     -754.54588     -13995.112    
  11000000   1.114167       305.97225      874.15013     -13920.772    
  11100000   1.114167       297.84617     -302.69802     -13904.776    
  11200000   1.114167       319.05639     -1009.911      -13822.079    
  11300000   1.114167       295.86158      828.38296     -13927.962    
  11400000   1.114167       286.84088     -689.53028     -13978.699    
  11500000   1.114167       281.78126     -3.5109742     -13967.155    
  11600000   1.114167       295.54828      475.21744     -13891.546    
  11700000   1.114167       294.40228     -1167.824      -13942.959    
  11800000   1.114167       302.63549      1158.787      -13877.183    
  11900000   1.114167       298.86714      1289.114      -13964.582    
  12000000   1.114167       307.31442      624.85939     -13929.398    
  12100000   1.114167       301.76301     -519.94571     -13950.081    
  12200000   1.114167       295.06631     -1344.2386     -13915.051    
  12300000   1.114167       294.54928     -694.82582     -13949.103    
  12400000   1.114167       298.62573      795.00327     -13902.091    
  12500000   1.114167       301.98288      1339.96       -13889.138    
Loop time of 12704.4 on 12 procs for 2500000 steps with 1608 atoms

Performance: 17.002 ns/day, 1.412 hours/ns, 196.783 timesteps/s
93.9% CPU use with 12 MPI tasks x no OpenMP threads

MPI task timing breakdown:
Section |  min time  |  avg time  |  max time  |%varavg| %total
---------------------------------------------------------------
Pair    | 7277.2     | 7903.4     | 8288.3     | 417.8 | 62.21
Bond    | 33.805     | 34.817     | 35.44      |   7.5 |  0.27
Kspace  | 3028.9     | 3416.8     | 4044.1     | 637.1 | 26.89
Neigh   | 212.67     | 212.79     | 212.88     |   0.4 |  1.67
Comm    | 355.07     | 356.86     | 359.32     |   6.2 |  2.81
Output  | 0.8907     | 0.89192    | 0.89406    |   0.1 |  0.01
Modify  | 728.89     | 730.24     | 731.93     |   3.3 |  5.75
Other   |            | 48.62      |            |       |  0.38

Nlocal:            134 ave         144 max         126 min
Histogram: 1 2 4 0 0 0 0 3 1 1
Nghost:        4284.67 ave        4311 max        4247 min
Histogram: 1 0 0 2 1 3 1 1 0 3
Neighs:        49913.7 ave       54413 max       44695 min
Histogram: 1 1 1 1 2 1 1 2 0 2

Total # of neighbors = 598964
Ave neighs/atom = 372.49005
Ave special neighs/atom = 1.8656716
Neighbor list builds = 100879
Dangerous builds = 0
shell bash copy_files.sh dt_${tstep} 12.50Mstep
shell bash copy_files.sh dt_1 12.50Mstep

run ${Nrun3}
run 2500000
PPPM initialization ...
  extracting TIP4P info from pair style
  using 12-bit tables for long-range coulomb (../kspace.cpp:342)
  G vector (1/distance) = 0.31040912
  grid = 24 24 24
  stencil order = 5
  estimated absolute RMS force accuracy = 0.003756879
  estimated relative force accuracy = 1.1313729e-05
  using double precision KISS FFT
  3d grid and FFT values/proc = 5415 1152
Generated 0 of 6 mixed pair_coeff terms from arithmetic mixing rule
Per MPI rank memory allocation (min/avg/max) = 14.4 | 14.41 | 14.41 Mbytes
   Step        Density          Temp          Press          TotEng    
  12500000   1.114167       301.98288      1339.9885     -13889.138    
  12600000   1.114167       302.98441     -310.4453      -13935.333    
  12700000   1.114167       306.50335      382.74239     -13843.063    
  12800000   1.114167       300.60326      249.69637     -13944.561    
  12900000   1.114167       290.7724      -908.5835      -13936.4      
  13000000   1.114167       295.48086      149.91401     -13935.063    
  13100000   1.114167       291.84061     -221.67505     -13912.905    
  13200000   1.114167       297.27088      319.2471      -13930.83     
  13300000   1.114167       298.46923     -30.539961     -13967.401    
  13400000   1.114167       292.81244     -179.68195     -13970.239    
  13500000   1.114167       292.64301     -12.025248     -13906.331    
  13600000   1.114167       298.28923      433.3119      -13894.147    
  13700000   1.114167       294.10783     -711.05836     -13983.562    
  13800000   1.114167       299.56925      702.37038     -13940.361    
  13900000   1.114167       288.08841     -184.0735      -13974.865    
  14000000   1.114167       293.9499       598.31992     -13971.424    
  14100000   1.114167       293.03268     -261.95998     -13930.577    
  14200000   1.114167       294.77178      945.70935     -13897.386    
  14300000   1.114167       288.80266      382.7817      -13920.977    
  14400000   1.114167       308.58888     -291.35083     -13873.747    
  14500000   1.114167       297.57529     -823.28078     -13956.213    
  14600000   1.114167       296.61661      63.257874     -13912.117    
  14700000   1.114167       285.52673     -476.31008     -13914.288    
  14800000   1.114167       303.06237      148.99409     -13922.734    
  14900000   1.114167       301.21992     -825.72079     -13885.189    
  15000000   1.114167       290.28529      232.0721      -13937.78     
Loop time of 12724.9 on 12 procs for 2500000 steps with 1608 atoms

Performance: 16.975 ns/day, 1.414 hours/ns, 196.466 timesteps/s
93.8% CPU use with 12 MPI tasks x no OpenMP threads

MPI task timing breakdown:
Section |  min time  |  avg time  |  max time  |%varavg| %total
---------------------------------------------------------------
Pair    | 7309.6     | 7872.3     | 8383.8     | 394.2 | 61.87
Bond    | 33.918     | 34.924     | 35.383     |   6.0 |  0.27
Kspace  | 2951.9     | 3466.4     | 4030.4     | 595.6 | 27.24
Neigh   | 212.97     | 213.1      | 213.21     |   0.5 |  1.67
Comm    | 355.39     | 357.37     | 359.59     |   6.6 |  2.81
Output  | 0.88931    | 0.8909     | 0.89602    |   0.2 |  0.01
Modify  | 730.06     | 731.2      | 732.44     |   2.6 |  5.75
Other   |            | 48.69      |            |       |  0.38

Nlocal:            134 ave         142 max         118 min
Histogram: 1 0 1 0 0 1 1 5 1 2
Nghost:           4296 ave        4327 max        4262 min
Histogram: 1 1 0 0 3 3 2 0 0 2
Neighs:        49929.8 ave       55493 max       43134 min
Histogram: 1 1 0 3 1 0 0 3 2 1

Total # of neighbors = 599158
Ave neighs/atom = 372.6107
Ave special neighs/atom = 1.8656716
Neighbor list builds = 100887
Dangerous builds = 0
shell bash copy_files.sh dt_${tstep} 15.00Mstep
shell bash copy_files.sh dt_1 15.00Mstep

run ${Nrun3}
run 2500000
PPPM initialization ...
  extracting TIP4P info from pair style
  using 12-bit tables for long-range coulomb (../kspace.cpp:342)
  G vector (1/distance) = 0.31040912
  grid = 24 24 24
  stencil order = 5
  estimated absolute RMS force accuracy = 0.003756879
  estimated relative force accuracy = 1.1313729e-05
  using double precision KISS FFT
  3d grid and FFT values/proc = 5415 1152
Generated 0 of 6 mixed pair_coeff terms from arithmetic mixing rule
Per MPI rank memory allocation (min/avg/max) = 14.4 | 14.41 | 14.41 Mbytes
   Step        Density          Temp          Press          TotEng    
  15000000   1.114167       290.28529      231.89234     -13937.78     
  15100000   1.114167       298.15122     -712.27515     -13938.188    
  15200000   1.114167       303.34022     -635.24594     -13934.021    
  15300000   1.114167       299.31498      1059.0201     -13950.39     
  15400000   1.114167       299.59497      324.20066     -13853.335    
  15500000   1.114167       299.25225      476.42775     -13924.269    
  15600000   1.114167       296.99713     -61.358045     -13985.451    
  15700000   1.114167       295.96267      388.49553     -13917.029    
  15800000   1.114167       292.41961     -305.81526     -13895.89     
  15900000   1.114167       308.20963      796.35264     -13841.392    
  16000000   1.114167       290.54922      75.794279     -13958.072    
  16100000   1.114167       299.5554      -14.273462     -13993.579    
  16200000   1.114167       287.16073     -512.65441     -13957.804    
  16300000   1.114167       299.00967     -301.96584     -13890.227    
  16400000   1.114167       299.40529     -43.766416     -13929.871    
  16500000   1.114167       302.73095      709.65599     -13925.819    
  16600000   1.114167       300.21345     -387.13719     -13984.455    
  16700000   1.114167       303.49143      30.389385     -13934.572    
  16800000   1.114167       300.42396     -306.95703     -13901.756    
  16900000   1.114167       306.4563       405.62821     -13867.546    
  17000000   1.114167       304.35771     -148.01621     -13932.611    
  17100000   1.114167       276.25524      213.1899      -14012.897    
  17200000   1.114167       310.02044     -525.49069     -13964.248    
  17300000   1.114167       302.40396      143.12712     -13848.676    
  17400000   1.114167       291.06808     -154.08753     -13979.735    
  17500000   1.114167       294.37052     -47.762479     -13948.507    
Loop time of 12700.4 on 12 procs for 2500000 steps with 1608 atoms

Performance: 17.007 ns/day, 1.411 hours/ns, 196.844 timesteps/s
93.9% CPU use with 12 MPI tasks x no OpenMP threads

MPI task timing breakdown:
Section |  min time  |  avg time  |  max time  |%varavg| %total
---------------------------------------------------------------
Pair    | 7335.1     | 7886.3     | 8388.2     | 414.5 | 62.09
Bond    | 33.98      | 34.825     | 35.419     |   6.1 |  0.27
Kspace  | 2924.9     | 3430.2     | 3982.1     | 630.1 | 27.01
Neigh   | 212.78     | 212.9      | 212.99     |   0.4 |  1.68
Comm    | 354.74     | 356.83     | 359.17     |   7.4 |  2.81
Output  | 0.88916    | 0.89022    | 0.89373    |   0.1 |  0.01
Modify  | 728.75     | 729.71     | 730.86     |   2.4 |  5.75
Other   |            | 48.81      |            |       |  0.38

Nlocal:            134 ave         147 max         122 min
Histogram: 2 0 1 0 3 2 2 0 1 1
Nghost:           4299 ave        4338 max        4273 min
Histogram: 2 3 0 1 2 1 1 0 1 1
Neighs:        49901.6 ave       57822 max       42726 min
Histogram: 2 0 2 1 2 2 0 0 2 1

Total # of neighbors = 598819
Ave neighs/atom = 372.39988
Ave special neighs/atom = 1.8656716
Neighbor list builds = 100841
Dangerous builds = 0
shell bash copy_files.sh dt_${tstep} 17.50Mstep
shell bash copy_files.sh dt_1 17.50Mstep

run ${Nrun3}
run 2500000
PPPM initialization ...
  extracting TIP4P info from pair style
  using 12-bit tables for long-range coulomb (../kspace.cpp:342)
  G vector (1/distance) = 0.31040912
  grid = 24 24 24
  stencil order = 5
  estimated absolute RMS force accuracy = 0.003756879
  estimated relative force accuracy = 1.1313729e-05
  using double precision KISS FFT
  3d grid and FFT values/proc = 5415 1152
Generated 0 of 6 mixed pair_coeff terms from arithmetic mixing rule
Per MPI rank memory allocation (min/avg/max) = 14.4 | 14.41 | 14.41 Mbytes
   Step        Density          Temp          Press          TotEng    
  17500000   1.114167       294.37052     -47.353459     -13948.507    
  17600000   1.114167       288.66665      44.401721     -13951.554    
  17700000   1.114167       297.1433      -475.10152     -13948.189    
  17800000   1.114167       293.44224      1361.8467     -13921.873    
  17900000   1.114167       302.44475      701.93459     -13948.961    
  18000000   1.114167       295.24358      251.1212      -13909.639    
  18100000   1.114167       298.29215     -345.13149     -13943.466    
  18200000   1.114167       301.30647     -659.53724     -13925.892    
  18300000   1.114167       308.00458     -1007.052      -13854.094    
  18400000   1.114167       295.09633     -76.942582     -13995.768    
  18500000   1.114167       281.08461      580.63371     -14027.623    
  18600000   1.114167       298.31557     -1045.8157     -14005.294    
  18700000   1.114167       307.26859      384.26079     -13860.094    
  18800000   1.114167       309.9561      -114.48543     -13862.851    
  18900000   1.114167       304.4489      -86.798556     -13915.642    
  19000000   1.114167       293.78285      436.30644     -13862.552    
  19100000   1.114167       296.94817      297.65008     -13935.848    
  19200000   1.114167       280.81381     -1217.9921     -13944.733    
  19300000   1.114167       290.17312      35.826356     -13955.213    
  19400000   1.114167       300.75276     -320.30362     -13881.554    
  19500000   1.114167       309.33304      738.62958     -13877.938    
  19600000   1.114167       314.53408      126.81503     -13835.483    
  19700000   1.114167       290.13713     -309.33843     -13959.363    
  19800000   1.114167       296.84744     -700.40363     -13913.535    
  19900000   1.114167       303.24944     -582.4496      -13920.532    
  20000000   1.114167       301.62704     -223.42647     -13960.302    
Loop time of 12722.2 on 12 procs for 2500000 steps with 1608 atoms

Performance: 16.978 ns/day, 1.414 hours/ns, 196.506 timesteps/s
93.8% CPU use with 12 MPI tasks x no OpenMP threads

MPI task timing breakdown:
Section |  min time  |  avg time  |  max time  |%varavg| %total
---------------------------------------------------------------
Pair    | 7309.3     | 7882.9     | 8400.4     | 413.6 | 61.96
Bond    | 33.879     | 34.736     | 35.285     |   5.8 |  0.27
Kspace  | 2933.9     | 3454.7     | 4029.2     | 626.2 | 27.15
Neigh   | 212.8      | 212.92     | 213.02     |   0.5 |  1.67
Comm    | 355.21     | 357.11     | 359.25     |   7.0 |  2.81
Output  | 0.88917    | 0.89111    | 0.8956     |   0.2 |  0.01
Modify  | 728.83     | 730.31     | 731.81     |   3.0 |  5.74
Other   |            | 48.62      |            |       |  0.38

Nlocal:            134 ave         145 max         126 min
Histogram: 1 1 1 2 2 4 0 0 0 1
Nghost:        4287.08 ave        4338 max        4248 min
Histogram: 1 2 0 2 3 2 0 0 1 1
Neighs:          49919 ave       55109 max       44928 min
Histogram: 1 2 0 2 2 1 1 0 2 1

Total # of neighbors = 599028
Ave neighs/atom = 372.52985
Ave special neighs/atom = 1.8656716
Neighbor list builds = 100839
Dangerous builds = 0
shell bash copy_files.sh dt_${tstep} 20.00Mstep
shell bash copy_files.sh dt_1 20.00Mstep

run ${Nrun4}
run 5000000
PPPM initialization ...
  extracting TIP4P info from pair style
  using 12-bit tables for long-range coulomb (../kspace.cpp:342)
  G vector (1/distance) = 0.31040912
  grid = 24 24 24
  stencil order = 5
  estimated absolute RMS force accuracy = 0.003756879
  estimated relative force accuracy = 1.1313729e-05
  using double precision KISS FFT
  3d grid and FFT values/proc = 5415 1152
Generated 0 of 6 mixed pair_coeff terms from arithmetic mixing rule
Per MPI rank memory allocation (min/avg/max) = 14.4 | 14.41 | 14.41 Mbytes
   Step        Density          Temp          Press          TotEng    
  20000000   1.114167       301.62704     -223.24803     -13960.302    
  20100000   1.114167       301.11862      546.48581     -13935.03     
  20200000   1.114167       297.331        1207.3464     -13942.918    
  20300000   1.114167       291.77266     -193.3549      -13955.287    
  20400000   1.114167       289.75812      120.9606      -13931.281    
  20500000   1.114167       292.24813      255.1612      -13966.141    
  20600000   1.114167       292.54319     -102.1723      -14008.105    
  20700000   1.114167       292.43031     -1220.9309     -13929.545    
  20800000   1.114167       299.05174      119.66131     -13897.473    
  20900000   1.114167       292.11004      387.02134     -13942.967    
  21000000   1.114167       288.29379     -397.96995     -13926.313    
  21100000   1.114167       300.27902     -29.056232     -13913.32     
  21200000   1.114167       309.68887     -639.98995     -13899.136    
  21300000   1.114167       283.87118     -238.83194     -13956.641    
  21400000   1.114167       300.46318     -612.65045     -13914.585    
  21500000   1.114167       292.50565      527.66176     -13938.968    
  21600000   1.114167       295.14183      202.83779     -13952.417    
  21700000   1.114167       293.09959     -354.31482     -13942.247    
  21800000   1.114167       296.3364      -464.82803     -13943.442    
  21900000   1.114167       303.54777     -54.0697       -13756.278    
  22000000   1.114167       304.18014      679.22095     -13873.239    
  22100000   1.114167       294.02085     -249.45517     -13959.424    
  22200000   1.114167       303.15224     -535.78995     -13938.067    
  22300000   1.114167       283.7759       402.5336      -13950.609    
  22400000   1.114167       299.67706     -623.627       -13963.441    
  22500000   1.114167       303.89819     -974.366       -13832.049    
  22600000   1.114167       295.93772      512.27592     -13857.353    
  22700000   1.114167       305.34197     -345.74447     -13884.57     
  22800000   1.114167       294.45609     -1065.8905     -13976.112    
  22900000   1.114167       307.54674      345.26032     -13882.214    
  23000000   1.114167       299.85747     -732.03428     -13918.814    
  23100000   1.114167       301.9537      -229.4281      -13920.044    
  23200000   1.114167       305.00008      410.98698     -13892.911    
  23300000   1.114167       300.88531      380.53864     -13930.429    
  23400000   1.114167       292.1824       190.44581     -13927.384    
  23500000   1.114167       300.14243     -486.40386     -13908.506    
  23600000   1.114167       296.51955      476.49494     -13901.025    
  23700000   1.114167       297.67475      67.43567      -13925.745    
  23800000   1.114167       290.73884     -99.47215      -13958.149    
  23900000   1.114167       307.37217      91.360269     -13836.418    
  24000000   1.114167       292.21211      267.2323      -13980.333    
  24100000   1.114167       303.39167     -1263.805      -13979.269    
  24200000   1.114167       291.82514     -194.94898     -13963.761    
  24300000   1.114167       303.35174      551.71993     -13876.577    
  24400000   1.114167       308.17667     -525.94136     -13867.364    
  24500000   1.114167       295.92486     -142.92532     -13887.082    
  24600000   1.114167       300.00906     -97.808087     -13868.234    
  24700000   1.114167       298.24061      640.37017     -13885.64     
  24800000   1.114167       295.89503      103.76935     -13962.639    
  24900000   1.114167       302.68202     -197.11873     -13928.964    
  25000000   1.114167       299.75983     -745.25585     -13887.585    
Loop time of 25527.9 on 12 procs for 5000000 steps with 1608 atoms

Performance: 16.923 ns/day, 1.418 hours/ns, 195.864 timesteps/s
93.6% CPU use with 12 MPI tasks x no OpenMP threads

MPI task timing breakdown:
Section |  min time  |  avg time  |  max time  |%varavg| %total
---------------------------------------------------------------
Pair    | 14674      | 15772      | 16766      | 577.6 | 61.78
Bond    | 68.085     | 69.846     | 70.881     |   8.3 |  0.27
Kspace  | 5990.1     | 6983.5     | 8083.4     | 869.8 | 27.36
Neigh   | 426.32     | 426.53     | 426.72     |   0.5 |  1.67
Comm    | 710.58     | 714.97     | 719.91     |  11.1 |  2.80
Output  | 1.7882     | 1.7901     | 1.7991     |   0.2 |  0.01
Modify  | 1458.3     | 1461.3     | 1464.4     |   4.5 |  5.72
Other   |            | 97.57      |            |       |  0.38

Nlocal:            134 ave         148 max         115 min
Histogram: 1 0 0 1 2 2 3 0 2 1
Nghost:        4306.83 ave        4344 max        4241 min
Histogram: 1 0 1 1 1 2 0 0 2 4
Neighs:        49882.5 ave       55898 max       43005 min
Histogram: 1 0 3 0 0 2 2 3 0 1

Total # of neighbors = 598590
Ave neighs/atom = 372.25746
Ave special neighs/atom = 1.8656716
Neighbor list builds = 201871
Dangerous builds = 0
shell bash copy_files.sh dt_${tstep} 25.00Mstep
shell bash copy_files.sh dt_1 25.00Mstep

run ${Nrun4}
run 5000000
PPPM initialization ...
  extracting TIP4P info from pair style
  using 12-bit tables for long-range coulomb (../kspace.cpp:342)
  G vector (1/distance) = 0.31040912
  grid = 24 24 24
  stencil order = 5
  estimated absolute RMS force accuracy = 0.003756879
  estimated relative force accuracy = 1.1313729e-05
  using double precision KISS FFT
  3d grid and FFT values/proc = 5415 1152
Generated 0 of 6 mixed pair_coeff terms from arithmetic mixing rule
Per MPI rank memory allocation (min/avg/max) = 14.4 | 14.41 | 14.41 Mbytes
   Step        Density          Temp          Press          TotEng    
  25000000   1.114167       299.75983     -745.62647     -13887.585    
  25100000   1.114167       296.53538      929.86203     -13952.331    
  25200000   1.114167       293.36415     -557.24034     -13947.313    
  25300000   1.114167       303.68689      742.30129     -13910.175    
  25400000   1.114167       286.69859      184.30019     -13979.331    
  25500000   1.114167       304.38166      916.63548     -13895.287    
  25600000   1.114167       302.68039     -10.993108     -13935.112    
  25700000   1.114167       281.16059     -748.93214     -13948.697    
  25800000   1.114167       317.38825      34.259761     -13859.482    
  25900000   1.114167       299.2722       177.64376     -13869.161    
  26000000   1.114167       288.77361      887.53289     -13961.315    
  26100000   1.114167       282.27148     -843.91171     -13981.448    
  26200000   1.114167       289.98149      544.06165     -13861.587    
  26300000   1.114167       303.03277      72.838851     -13877.892    
  26400000   1.114167       290.15318      782.92963     -13925.89     
  26500000   1.114167       290.2253      -624.26124     -13869.521    
  26600000   1.114167       304.26332     -353.31478     -13919.35     
  26700000   1.114167       285.13296     -861.90268     -13960.177    
  26800000   1.114167       296.30064      676.92582     -13886.008    
  26900000   1.114167       295.95954     -1352.1691     -13872.653    
  27000000   1.114167       299.3697      -1133.1594     -13933.821    
  27100000   1.114167       294.06899      722.47719     -13936.374    
  27200000   1.114167       296.36161     -431.10983     -13991.467    
  27300000   1.114167       299.38723     -61.220263     -13949.624    
  27400000   1.114167       300.69426      373.78901     -13882.611    
  27500000   1.114167       298.19884     -732.13285     -13903.583    
  27600000   1.114167       291.7539      -821.03711     -13905.883    
  27700000   1.114167       300.47594     -377.81314     -13872.163    
  27800000   1.114167       290.04734     -65.231662     -13914.713    
  27900000   1.114167       296.44654     -505.26042     -13900.431    
  28000000   1.114167       289.82754     -402.07764     -13967.776    
  28100000   1.114167       297.26645     -98.805989     -13932.864    
  28200000   1.114167       301.97054      1269.9116     -13881.744    
  28300000   1.114167       314.06834     -365.64753     -13857.649    
  28400000   1.114167       294.33364      955.65347     -13915.013    
  28500000   1.114167       294.98655      688.60645     -13981.965    
  28600000   1.114167       313.53127     -86.302602     -13861.686    
  28700000   1.114167       296.47735      889.47577     -13989.207    
  28800000   1.114167       292.61341     -733.77879     -13935.497    
  28900000   1.114167       283.20177     -459.54761     -14014.703    
  29000000   1.114167       294.74151      718.52576     -13926.574    
  29100000   1.114167       303.32859     -440.78922     -13899.681    
  29200000   1.114167       301.21974     -283.88134     -13910.985    
  29300000   1.114167       288.47679     -947.00991     -14012.371    
  29400000   1.114167       296.47864     -314.05785     -13921.059    
  29500000   1.114167       302.91723     -828.18809     -13895.655    
  29600000   1.114167       297.48966     -248.04971     -13859.027    
  29700000   1.114167       302.58433      687.54544     -13869.94     
  29800000   1.114167       296.32982     -1001.2951     -13937.917    
  29900000   1.114167       296.78942     -360.95636     -13909.012    
  30000000   1.114167       302.16162      184.9402      -13901.976    
Loop time of 25432.4 on 12 procs for 5000000 steps with 1608 atoms

Performance: 16.986 ns/day, 1.413 hours/ns, 196.600 timesteps/s
93.8% CPU use with 12 MPI tasks x no OpenMP threads

MPI task timing breakdown:
Section |  min time  |  avg time  |  max time  |%varavg| %total
---------------------------------------------------------------
Pair    | 14563      | 15762      | 16752      | 587.5 | 61.98
Bond    | 67.699     | 69.446     | 70.446     |   8.0 |  0.27
Kspace  | 5902.9     | 6900.1     | 8101       | 890.2 | 27.13
Neigh   | 425.82     | 426.09     | 426.27     |   0.6 |  1.68
Comm    | 709.86     | 714.12     | 719.15     |  11.1 |  2.81
Output  | 1.7821     | 1.7849     | 1.7916     |   0.2 |  0.01
Modify  | 1458       | 1461.4     | 1464.6     |   4.6 |  5.75
Other   |            | 97.42      |            |       |  0.38

Nlocal:            134 ave         145 max         123 min
Histogram: 1 0 1 1 2 3 3 0 0 1
Nghost:         4328.5 ave        4367 max        4287 min
Histogram: 1 1 2 2 0 0 2 1 0 3
Neighs:        49901.4 ave       53180 max       43486 min
Histogram: 1 0 0 1 1 0 2 2 3 2

Total # of neighbors = 598817
Ave neighs/atom = 372.39863
Ave special neighs/atom = 1.8656716
Neighbor list builds = 201647
Dangerous builds = 0
shell bash copy_files.sh dt_${tstep} 30.00Mstep
shell bash copy_files.sh dt_1 30.00Mstep

run ${Nrun4}
run 5000000
PPPM initialization ...
  extracting TIP4P info from pair style
  using 12-bit tables for long-range coulomb (../kspace.cpp:342)
  G vector (1/distance) = 0.31040912
  grid = 24 24 24
  stencil order = 5
  estimated absolute RMS force accuracy = 0.003756879
  estimated relative force accuracy = 1.1313729e-05
  using double precision KISS FFT
  3d grid and FFT values/proc = 5415 1152
Generated 0 of 6 mixed pair_coeff terms from arithmetic mixing rule
Per MPI rank memory allocation (min/avg/max) = 14.4 | 14.41 | 14.41 Mbytes
   Step        Density          Temp          Press          TotEng    
  30000000   1.114167       302.16162      185.05522     -13901.976    
  30100000   1.114167       298.61396     -486.42142     -13934.138    
  30200000   1.114167       299.58         757.85881     -13887.43     
  30300000   1.114167       302.41019      266.31956     -13909.86     
  30400000   1.114167       296.80282     -553.37841     -13899.249    
  30500000   1.114167       300.00169     -191.03939     -13967.17     
  30600000   1.114167       293.70218      1276.9689     -13964.295    
  30700000   1.114167       304.3491      -218.1316      -13916.428    
  30800000   1.114167       295.81039     -1636.7228     -13935.675    
  30900000   1.114167       296.62749      567.42107     -13871.29     
  31000000   1.114167       303.76798     -849.99281     -13901.915    
  31100000   1.114167       301.45145     -239.71555     -13917.674    
  31200000   1.114167       285.77523     -44.220634     -14006.337    
  31300000   1.114167       301.14111      470.57731     -13906.751    
  31400000   1.114167       309.71067      227.79132     -13855.435    
  31500000   1.114167       297.61559     -415.42285     -13889.723    
  31600000   1.114167       301.33141      421.41216     -13935.15     
  31700000   1.114167       306.22417     -390.86828     -13896.153    
  31800000   1.114167       294.6057      -124.23045     -13896.9      
  31900000   1.114167       290.74037      197.78066     -13923.191    
  32000000   1.114167       297.74685      658.03823     -13930.697    
  32100000   1.114167       291.41429     -893.60076     -13931.152    
  32200000   1.114167       293.84763     -186.8294      -13925.825    
  32300000   1.114167       289.65138     -777.60947     -13965.264    
  32400000   1.114167       300.06265      736.79885     -13958.243    
  32500000   1.114167       298.95365     -586.15967     -13948.282    
  32600000   1.114167       303.94578      597.53648     -13947.564    
  32700000   1.114167       298.69311     -872.90916     -13937.166    
  32800000   1.114167       290.24457      1248.8431     -13924.412    
  32900000   1.114167       295.56785      518.24912     -13908.431    
  33000000   1.114167       300.49593     -313.29616     -13941.624    
  33100000   1.114167       294.05312     -303.47717     -13875.583    
  33200000   1.114167       291.53498      355.57709     -13938.761    
  33300000   1.114167       300.89813     -606.19457     -13912.366    
  33400000   1.114167       292.37597     -453.75477     -13914.684    
  33500000   1.114167       290.4216       360.63658     -13948.748    
  33600000   1.114167       294.8446       831.25616     -13931.535    
  33700000   1.114167       298.8215      -373.1625      -13902.911    
  33800000   1.114167       301.21584     -311.72372     -13939.956    
  33900000   1.114167       302.44311      707.44461     -13935.686    
  34000000   1.114167       285.87147     -414.61802     -13912.509    
  34100000   1.114167       288.22406     -242.91429     -13969.124    
  34200000   1.114167       308.3746      -880.55718     -13927.356    
  34300000   1.114167       296.5804       48.961771     -13950.379    
  34400000   1.114167       295.52615      1545.2391     -13934.762    
  34500000   1.114167       290.17546      324.95846     -13943.184    
  34600000   1.114167       303.18816     -771.94949     -13963.008    
  34700000   1.114167       291.15792     -667.54968     -13950.595    
  34800000   1.114167       302.92544      701.4005      -13912.871    
  34900000   1.114167       295.68622     -80.942162     -13959.228    
  35000000   1.114167       299.29564     -287.23313     -13859.573    
Loop time of 25426 on 12 procs for 5000000 steps with 1608 atoms

Performance: 16.990 ns/day, 1.413 hours/ns, 196.649 timesteps/s
93.9% CPU use with 12 MPI tasks x no OpenMP threads

MPI task timing breakdown:
Section |  min time  |  avg time  |  max time  |%varavg| %total
---------------------------------------------------------------
Pair    | 14595      | 15802      | 16700      | 571.1 | 62.15
Bond    | 67.732     | 69.679     | 71.052     |   9.8 |  0.27
Kspace  | 5957.2     | 6854.7     | 8064       | 869.2 | 26.96
Neigh   | 425.93     | 426.18     | 426.38     |   0.7 |  1.68
Comm    | 709.93     | 713.82     | 719.24     |  10.3 |  2.81
Output  | 1.7787     | 1.7817     | 1.7892     |   0.2 |  0.01
Modify  | 1458       | 1460.3     | 1463.6     |   4.0 |  5.74
Other   |            | 97.33      |            |       |  0.38

Nlocal:            134 ave         150 max         123 min
Histogram: 2 2 1 2 0 1 2 1 0 1
Nghost:        4287.08 ave        4339 max        4231 min
Histogram: 2 1 0 0 3 1 1 1 1 2
Neighs:        49923.2 ave       60233 max       46090 min
Histogram: 3 4 2 0 2 0 0 0 0 1

Total # of neighbors = 599078
Ave neighs/atom = 372.56095
Ave special neighs/atom = 1.8656716
Neighbor list builds = 201786
Dangerous builds = 0
shell bash copy_files.sh dt_${tstep} 35.00Mstep
shell bash copy_files.sh dt_1 35.00Mstep

run ${Nrun4}
run 5000000
PPPM initialization ...
  extracting TIP4P info from pair style
  using 12-bit tables for long-range coulomb (../kspace.cpp:342)
  G vector (1/distance) = 0.31040912
  grid = 24 24 24
  stencil order = 5
  estimated absolute RMS force accuracy = 0.003756879
  estimated relative force accuracy = 1.1313729e-05
  using double precision KISS FFT
  3d grid and FFT values/proc = 5415 1152
Generated 0 of 6 mixed pair_coeff terms from arithmetic mixing rule
Per MPI rank memory allocation (min/avg/max) = 14.4 | 14.41 | 14.41 Mbytes
   Step        Density          Temp          Press          TotEng    
  35000000   1.114167       299.29564     -287.37974     -13859.573    
  35100000   1.114167       293.36566      217.98231     -13906.834    
  35200000   1.114167       295.87074     -44.459875     -13908.837    
  35300000   1.114167       296.13001      781.36928     -13922.098    
  35400000   1.114167       300.14769      41.922796     -13960.142    
  35500000   1.114167       304.93304     -197.68608     -13904.922    
  35600000   1.114167       310.28869      462.26022     -13906.8      
  35700000   1.114167       299.18067     -807.46364     -13915.568    
  35800000   1.114167       295.95799     -263.29364     -13921.867    
  35900000   1.114167       300.09672      465.12856     -13936.519    
  36000000   1.114167       299.25614      241.85646     -13905.436    
  36100000   1.114167       298.64467     -750.16341     -13933.329    
  36200000   1.114167       307.45399      608.36234     -13914.233    
  36300000   1.114167       297.15102     -894.78044     -13904.676    
  36400000   1.114167       298.68272      449.9087      -13889.522    
  36500000   1.114167       313.83288      222.10163     -13970.649    
  36600000   1.114167       291.77908      181.36054     -13898.118    
  36700000   1.114167       300.20568     -866.36518     -13905.826    
  36800000   1.114167       290.44172      465.9864      -13969.844    
  36900000   1.114167       302.64483      608.81335     -13929.299    
  37000000   1.114167       284.67075     -629.84852     -13957.123    
  37100000   1.114167       285.96568      205.57702     -14040.091    
  37200000   1.114167       298.24189      494.30467     -13908.881    
  37300000   1.114167       289.24383     -1263.4936     -13906.67     
  37400000   1.114167       296.35401     -686.55434     -13949.483    
  37500000   1.114167       298.16614      549.24737     -13927.172    
  37600000   1.114167       294.33525      34.905716     -13923.887    
  37700000   1.114167       291.66427      549.20534     -13903.049    
  37800000   1.114167       294.19884      130.19341     -13909.267    
  37900000   1.114167       291.95585     -33.408086     -13980.993    
  38000000   1.114167       298.80578     -582.76867     -13936.566    
  38100000   1.114167       294.89293      725.91309     -13913.771    
  38200000   1.114167       286.00719      401.88702     -13976.182    
  38300000   1.114167       300.85657     -466.88808     -13872.644    
  38400000   1.114167       310.27193      998.7914      -13943.565    
  38500000   1.114167       305.21986     -1259.8882     -13864.673    
  38600000   1.114167       302.04602      261.68152     -13887.346    
  38700000   1.114167       303.58857      727.57538     -13832.846    
  38800000   1.114167       289.46014     -597.99794     -13981.375    
  38900000   1.114167       295.62824      947.727       -13929.171    
  39000000   1.114167       295.78948     -787.72939     -14003.246    
  39100000   1.114167       298.58398     -581.05788     -13888.783    
  39200000   1.114167       291.29321     -724.94851     -13907.46     
  39300000   1.114167       302.65619     -2340.3096     -13921.135    
  39400000   1.114167       299.88141     -61.9111       -13957.48     
  39500000   1.114167       294.90833      944.27726     -13888.222    
  39600000   1.114167       310.25618     -627.85407     -13863.211    
  39700000   1.114167       304.55096     -245.15882     -13883.819    
  39800000   1.114167       300.75067     -563.87798     -13925.546    
  39900000   1.114167       301.31446     -1325.7726     -13903.588    
  40000000   1.114167       302.95337      155.25115     -13880.594    
Loop time of 25430.2 on 12 procs for 5000000 steps with 1608 atoms

Performance: 16.988 ns/day, 1.413 hours/ns, 196.617 timesteps/s
93.8% CPU use with 12 MPI tasks x no OpenMP threads

MPI task timing breakdown:
Section |  min time  |  avg time  |  max time  |%varavg| %total
---------------------------------------------------------------
Pair    | 14530      | 15780      | 16720      | 587.0 | 62.05
Bond    | 67.705     | 69.575     | 70.668     |   9.2 |  0.27
Kspace  | 5936.9     | 6882.9     | 8134.6     | 890.7 | 27.07
Neigh   | 425.42     | 425.65     | 425.84     |   0.6 |  1.67
Comm    | 709.83     | 714.15     | 718.98     |  10.1 |  2.81
Output  | 1.7819     | 1.7846     | 1.7929     |   0.2 |  0.01
Modify  | 1455.8     | 1458.5     | 1461.5     |   4.3 |  5.74
Other   |            | 97.54      |            |       |  0.38

Nlocal:            134 ave         143 max         125 min
Histogram: 1 0 0 5 1 0 3 1 0 1
Nghost:         4303.5 ave        4342 max        4260 min
Histogram: 1 0 1 3 0 3 1 1 0 2
Neighs:        49912.3 ave       52989 max       46553 min
Histogram: 2 2 0 0 1 1 1 2 1 2

Total # of neighbors = 598948
Ave neighs/atom = 372.4801
Ave special neighs/atom = 1.8656716
Neighbor list builds = 201642
Dangerous builds = 0
