LAMMPS (23 Jun 2022 - Update 2)
WARNING: Using I/O redirection is unreliable with parallel runs. Better use -in switch to read input file. (../lammps.cpp:530)
####################################################
# Preprocessing Li2SO4 in water
#################### SETTING UP ####################
units real
dimension 3
newton on
boundary p p p
atom_style full

#################### VARIABLES ####################
variable Temp equal 298.15    # Temperature in K
variable Pres equal 1    # Pressure in atm.

variable RandomSeed equal 35 # The random seed for velocity
variable tstep equal 1 # timestep in fs

#################### NPT ####################
variable Ninptpre equal 10000 # Pre-initialize the NPT ensemble (very small timesteps)
variable Ninpt equal 5000000  # Initialize the NPT ensemble
variable Npnpt equal 5000000  # Production in the NPT ensemble (volume)

#################### NVT ####################
variable Ninvtpre equal 10000  # Pre-initialize the NVT ensemble (very small timesteps)
variable Ninvt equal 2500000   # Initialize the NVT ensemble 2.5Mstep
variable Nrun1 equal 250000  # production in the NVT ensemble (Transport properties)
variable Nrun2 equal 1000000  # production in the NVT ensemble (Transport properties)
variable Nrun3 equal 2500000  # production in the NVT ensemble (Transport properties)
variable Nrun4 equal 5000000  # production in the NVT ensemble (Transport properties)

variable Nf equal 100000      # Nfreq (fix ave/time and thermo)
variable Ne equal  1          # Nevery (fix ave/time)
variable Nr equal ${Nf}/${Ne} # Nrepeat (fix ave/time)
variable Nr equal 100000/${Ne} 
variable Nr equal 100000/1 
variable Nd equal ${Nf} 	  # Frequency of outputting positions of atoms in the NVT ensemble
variable Nd equal 100000 	  
variable NBR equal ${Npnpt}/100 # Block averaging for density (NPT)
variable NBR equal 5000000/100 

variable nb equal 10          # Number of blocks (fix ordern)
variable nbe equal 20         # Number of block elements (fix ordern)
variable Nvisc equal 5        # Nevery for viscosity (fix ordern: sample data at (Nvisc*2))
variable Ncond equal 5        # Nevery for Tconductivity (fix ordern: sample data at (Ncond*2))
variable Ndiff equal 1000     # Nevery for diffusivity (fix ordern: sample data at (Ndiff))
variable Nwrit equal 100000   # Nwrite for transport properties (fix ordern: write every (Nwrit))

variable Nrdfe equal 1000     # Nevery for RDF (fix ave/time)
variable Nrdfw equal 1000     # Nwrite for RDF (compute rdf/ext: write every (Nrdfw*Nrdfe))
variable binnum equal 2000    # Number of bins for RDF

#################### ATOM DEFINITION and FORCEFIELD ####################
read_data ./data.lmp                     # read the positions
Reading data file ...
  orthogonal box = (0 0 0) to (26.379509 26.379509 26.379509)
  2 by 2 by 3 MPI processor grid
  reading atoms ...
  1608 atoms
  scanning bonds ...
  2 = max bonds/atom
  scanning angles ...
  1 = max angles/atom
  reading bonds ...
  1000 bonds
  reading angles ...
  500 angles
Finding 1-2 1-3 1-4 neighbors ...
  special bond factors lj:    0        0        0       
  special bond factors coul:  0        0        0       
     2 = max # of 1-2 neighbors
     1 = max # of 1-3 neighbors
     1 = max # of 1-4 neighbors
     2 = max # of special neighbors
  special bonds CPU = 0.003 seconds
  read_data CPU = 0.023 seconds
include ./forcefield.data                # read the force field
#--------INTERMOLECULAR POTENTIAL -------------------#
# --------Developed for MadridT KCl + TIP4P/2005-----#

mass 1 15.9994	# Ow
mass 2 1.008	# Hw
mass 3 6.941	# Li
mass 4 35.453	# Cl


pair_style lj/cut/tip4p/long 1 2 1 1 0.1546 10.0
kspace_style pppm/tip4p 1.0e-5
pair_modify mix arithmetic tail yes # ATC and Lorentz-Berthelot combining rules

#-----------------Combinations----------------------------
# atomtype atomtype epsilon sigma

pair_coeff 1 1 0.185200 3.15890    # Ow-Ow
pair_coeff 1 2 0.000000 0.00000    # Ow-Hw
pair_coeff 1 3 0.167459 2.12000    # Ow-Li
pair_coeff 1 4 0.014814 4.23867    # Ow-Cl

pair_coeff 2 2 0.000000 0.00000    # Hw-Hw
pair_coeff 2 3 0.000000 0.00000    # Hw-K
pair_coeff 2 4 0.000000 0.00000    # Hw-Cl

pair_coeff 3 3 0.103989 1.43970    # Li-Li
pair_coeff 3 4 0.306631 2.70000    # Li-Cl

pair_coeff 4 4 0.018385 4.69906    # Cl-Cl

bond_style  harmonic
bond_coeff 1 2000 0.9572           # Ow-Hw

angle_style harmonic
angle_coeff 1 200 104.52           # H-Ow-H

#dihedral_style none
#improper_style none

set type 1 charge -1.1128          # O
Setting atom values ...
  500 settings made for charge
set type 2 charge +0.5564          # OH
Setting atom values ...
  1000 settings made for charge
set type 3 charge +0.8500          # Li
Setting atom values ...
  54 settings made for charge
set type 4 charge -0.8500          # Cl
Setting atom values ...
  54 settings made for charge

#################### INITIALIZATION ####################
group wat type 1		# O water
500 atoms in group wat
group Li type 3			# Potasium ion
54 atoms in group Li
group Cl type 4			# Chlorine ion
54 atoms in group Cl

# neigbor lists
neighbor 2.0 bin
neigh_modify every 1 delay 0 check yes

# velocity-Verlet integrator
run_style verlet


# minimizing the system using the conjugate gradient method
min_style cg
min_modify dmax 0.05
minimize 1.0e-6 1.0e-6 1000 10000
PPPM initialization ...
  extracting TIP4P info from pair style
  using 12-bit tables for long-range coulomb (../kspace.cpp:342)
  G vector (1/distance) = 0.31127036
  grid = 25 25 25
  stencil order = 5
  estimated absolute RMS force accuracy = 0.0034097995
  estimated relative force accuracy = 1.026851e-05
  using double precision KISS FFT
  3d grid and FFT values/proc = 6400 1875
Generated 0 of 6 mixed pair_coeff terms from arithmetic mixing rule
Neighbor list info ...
  update every 1 steps, delay 0 steps, check yes
  max neighbors/atom: 2000, page size: 100000
  master list distance cutoff = 12.3092
  ghost atom cutoff = 12.3092
  binsize = 6.1546, bins = 5 5 5
  1 neighbor lists, perpetual/occasional/extra = 1 0 0
  (1) pair lj/cut/tip4p/long, perpetual
      attributes: half, newton on
      pair build: half/bin/newton
      stencil: half/bin/3d
      bin: standard
Per MPI rank memory allocation (min/avg/max) = 8.944 | 8.964 | 9.004 Mbytes
   Step          Temp          E_pair         E_mol          TotEng         Press     
         0   0              641.68376      3.1566538e-05  641.68379      52703.279    
      1000   0             -15695.723      94.172312     -15601.551     -5299.7128    
Loop time of 5.93765 on 12 procs for 1000 steps with 1608 atoms

93.4% CPU use with 12 MPI tasks x no OpenMP threads

Minimization stats:
  Stopping criterion = max iterations
  Energy initial, next-to-last, final = 
      641.683787181595  -15601.0710018281   -15601.550789311
  Force two-norm initial, final = 2112.4623 42.476166
  Force max component initial, final = 608.22136 9.3161348
  Final line search alpha, max atom move = 0.0026960674 0.025116928
  Iterations, force evaluations = 1000 1842

MPI task timing breakdown:
Section |  min time  |  avg time  |  max time  |%varavg| %total
---------------------------------------------------------------
Pair    | 3.2952     | 3.656      | 4.0572     |  11.6 | 61.57
Bond    | 0.017093   | 0.018129   | 0.019281   |   0.5 |  0.31
Kspace  | 1.5002     | 1.8995     | 2.2601     |  16.0 | 31.99
Neigh   | 0.030682   | 0.030789   | 0.030853   |   0.0 |  0.52
Comm    | 0.22863    | 0.23391    | 0.23815    |   0.6 |  3.94
Output  | 7.3433e-05 | 9.4024e-05 | 0.00030818 |   0.0 |  0.00
Modify  | 0          | 0          | 0          |   0.0 |  0.00
Other   |            | 0.09925    |            |       |  1.67

Nlocal:            134 ave         140 max         128 min
Histogram: 1 1 1 0 3 2 0 2 1 1
Nghost:        4116.92 ave        4183 max        4017 min
Histogram: 1 0 1 0 3 0 2 1 1 3
Neighs:        45853.6 ave       49043 max       42855 min
Histogram: 3 1 0 1 0 1 3 1 0 2

Total # of neighbors = 550243
Ave neighs/atom = 342.19092
Ave special neighs/atom = 1.8656716
Neighbor list builds = 16
Dangerous builds = 0
reset_timestep 0


# initializing velocities
velocity all create ${Temp} ${RandomSeed}
velocity all create 298.15 ${RandomSeed}
velocity all create 298.15 35

# rate of writing thermal properties to the log file
thermo_style custom step density temp press etotal
thermo_modify flush yes
thermo ${Nf}
thermo 100000

#################### 2) Initialize the NPT ensemble ####################
######### Go to the correct temperature now ant initiate that ##########
fix constrain all shake 1.0e-6 1000 0 b 1 a 1
       0 = # of size 2 clusters
       0 = # of size 3 clusters
       0 = # of size 4 clusters
     500 = # of frozen angles
  find clusters CPU = 0.001 seconds
fix integrate all npt temp ${Temp} ${Temp} 10.0 iso ${Pres} ${Pres} 100.0
fix integrate all npt temp 298.15 ${Temp} 10.0 iso ${Pres} ${Pres} 100.0
fix integrate all npt temp 298.15 298.15 10.0 iso ${Pres} ${Pres} 100.0
fix integrate all npt temp 298.15 298.15 10.0 iso 1 ${Pres} 100.0
fix integrate all npt temp 298.15 298.15 10.0 iso 1 1 100.0


# Initializing the whole system with very small timesteps in the NPT ensemble
timestep 0.001
run ${Ninptpre}
run 10000
PPPM initialization ...
  extracting TIP4P info from pair style
  using 12-bit tables for long-range coulomb (../kspace.cpp:342)
  G vector (1/distance) = 0.31127036
  grid = 25 25 25
  stencil order = 5
  estimated absolute RMS force accuracy = 0.0034097995
  estimated relative force accuracy = 1.026851e-05
  using double precision KISS FFT
  3d grid and FFT values/proc = 6400 1875
Generated 0 of 6 mixed pair_coeff terms from arithmetic mixing rule
Per MPI rank memory allocation (min/avg/max) = 8.694 | 8.714 | 8.754 Mbytes
   Step        Density          Temp          Press          TotEng    
         0   1.0219065      432.81576      481746.59     -14267.536    
     10000   1.0303027      174.59395      1258.5061     -14484.409    
Loop time of 42.7804 on 12 procs for 10000 steps with 1608 atoms

Performance: 0.020 ns/day, 1188.343 hours/ns, 233.752 timesteps/s
92.0% CPU use with 12 MPI tasks x no OpenMP threads

MPI task timing breakdown:
Section |  min time  |  avg time  |  max time  |%varavg| %total
---------------------------------------------------------------
Pair    | 21.88      | 24.192     | 26.589     |  27.7 | 56.55
Bond    | 0.0066444  | 0.0076952  | 0.011885   |   1.5 |  0.02
Kspace  | 8.0579     | 10.46      | 12.769     |  42.2 | 24.45
Neigh   | 0          | 0          | 0          |   0.0 |  0.00
Comm    | 1.2071     | 1.2269     | 1.26       |   1.4 |  2.87
Output  | 6.4783e-05 | 8.6746e-05 | 0.00031448 |   0.0 |  0.00
Modify  | 4.6419     | 5.129      | 6.7442     |  22.0 | 11.99
Other   |            | 1.765      |            |       |  4.13

Nlocal:            134 ave         139 max         128 min
Histogram: 2 0 1 0 2 3 0 0 1 3
Nghost:         4126.5 ave        4191 max        4024 min
Histogram: 1 0 1 0 2 1 2 1 2 2
Neighs:        45850.9 ave       48798 max       41816 min
Histogram: 1 0 2 1 1 0 1 4 0 2

Total # of neighbors = 550211
Ave neighs/atom = 342.17102
Ave special neighs/atom = 1.8656716
Neighbor list builds = 0
Dangerous builds = 0
timestep 0.01
run ${Ninptpre}
run 10000
PPPM initialization ...
  extracting TIP4P info from pair style
  using 12-bit tables for long-range coulomb (../kspace.cpp:342)
  G vector (1/distance) = 0.31146595
  grid = 25 25 25
  stencil order = 5
  estimated absolute RMS force accuracy = 0.003382248
  estimated relative force accuracy = 1.0185539e-05
  using double precision KISS FFT
  3d grid and FFT values/proc = 6400 1875
Generated 0 of 6 mixed pair_coeff terms from arithmetic mixing rule
Per MPI rank memory allocation (min/avg/max) = 8.694 | 8.714 | 8.754 Mbytes
   Step        Density          Temp          Press          TotEng    
     10000   1.0303027      174.59395     -178467.39     -14484.409    
     20000   1.0236185      300.15795      198.72845     -13428.346    
Loop time of 42.8914 on 12 procs for 10000 steps with 1608 atoms

Performance: 0.201 ns/day, 119.143 hours/ns, 233.147 timesteps/s
91.9% CPU use with 12 MPI tasks x no OpenMP threads

MPI task timing breakdown:
Section |  min time  |  avg time  |  max time  |%varavg| %total
---------------------------------------------------------------
Pair    | 20.998     | 23.99      | 26.569     |  32.5 | 55.93
Bond    | 0.0066559  | 0.0076371  | 0.010708   |   1.2 |  0.02
Kspace  | 8.1137     | 10.692     | 13.69      |  48.4 | 24.93
Neigh   | 0.0076219  | 0.0076499  | 0.0076755  |   0.0 |  0.02
Comm    | 1.2538     | 1.2912     | 1.3539     |   2.5 |  3.01
Output  | 6.32e-05   | 8.4756e-05 | 0.00031696 |   0.0 |  0.00
Modify  | 4.6552     | 5.1401     | 6.7547     |  21.9 | 11.98
Other   |            | 1.763      |            |       |  4.11

Nlocal:            134 ave         144 max         126 min
Histogram: 2 0 3 1 1 2 1 0 0 2
Nghost:        4093.08 ave        4165 max        3998 min
Histogram: 1 1 0 1 1 3 1 1 0 3
Neighs:        45585.8 ave       49350 max       40648 min
Histogram: 1 1 1 1 0 1 2 1 2 2

Total # of neighbors = 547029
Ave neighs/atom = 340.19216
Ave special neighs/atom = 1.8656716
Neighbor list builds = 4
Dangerous builds = 0
timestep 0.1
run ${Ninptpre}
run 10000
PPPM initialization ...
  extracting TIP4P info from pair style
  using 12-bit tables for long-range coulomb (../kspace.cpp:342)
  G vector (1/distance) = 0.31131039
  grid = 25 25 25
  stencil order = 5
  estimated absolute RMS force accuracy = 0.0034041444
  estimated relative force accuracy = 1.025148e-05
  using double precision KISS FFT
  3d grid and FFT values/proc = 6400 1875
Generated 0 of 6 mixed pair_coeff terms from arithmetic mixing rule
Per MPI rank memory allocation (min/avg/max) = 8.694 | 8.714 | 8.754 Mbytes
   Step        Density          Temp          Press          TotEng    
     20000   1.0236185      300.15795     -14174.131     -13428.346    
     30000   1.088061       302.32409     -624.56335     -13564.747    
Loop time of 45.4221 on 12 procs for 10000 steps with 1608 atoms

Performance: 1.902 ns/day, 12.617 hours/ns, 220.157 timesteps/s
91.3% CPU use with 12 MPI tasks x no OpenMP threads

MPI task timing breakdown:
Section |  min time  |  avg time  |  max time  |%varavg| %total
---------------------------------------------------------------
Pair    | 22.322     | 25.677     | 28.071     |  31.1 | 56.53
Bond    | 0.0067261  | 0.0076845  | 0.0095136  |   0.9 |  0.02
Kspace  | 9.0252     | 11.431     | 14.777     |  46.7 | 25.17
Neigh   | 0.088981   | 0.08918    | 0.089327   |   0.0 |  0.20
Comm    | 1.2602     | 1.288      | 1.3156     |   1.3 |  2.84
Output  | 6.1214e-05 | 8.3858e-05 | 0.00031653 |   0.0 |  0.00
Modify  | 4.6806     | 5.1671     | 6.7833     |  21.9 | 11.38
Other   |            | 1.763      |            |       |  3.88

Nlocal:            134 ave         145 max         121 min
Histogram: 1 0 0 3 1 1 3 1 1 1
Nghost:        4249.25 ave        4274 max        4216 min
Histogram: 1 0 0 1 2 4 1 1 0 2
Neighs:        48944.2 ave       57041 max       41213 min
Histogram: 1 1 1 1 1 4 1 0 1 1

Total # of neighbors = 587331
Ave neighs/atom = 365.2556
Ave special neighs/atom = 1.8656716
Neighbor list builds = 44
Dangerous builds = 0
timestep 0.2
run ${Ninptpre}
run 10000
PPPM initialization ...
  extracting TIP4P info from pair style
  using 12-bit tables for long-range coulomb (../kspace.cpp:342)
  G vector (1/distance) = 0.30983847
  grid = 24 24 24
  stencil order = 5
  estimated absolute RMS force accuracy = 0.0038464283
  estimated relative force accuracy = 1.1583404e-05
  using double precision KISS FFT
  3d grid and FFT values/proc = 5415 1152
Generated 0 of 6 mixed pair_coeff terms from arithmetic mixing rule
Per MPI rank memory allocation (min/avg/max) = 8.66 | 8.665 | 8.668 Mbytes
   Step        Density          Temp          Press          TotEng    
     30000   1.088061       302.32409     -1096.1436     -13564.75     
     40000   1.0928674      292.17874     -1260.5704     -13680.726    
Loop time of 44.065 on 12 procs for 10000 steps with 1608 atoms

Performance: 3.921 ns/day, 6.120 hours/ns, 226.937 timesteps/s
93.6% CPU use with 12 MPI tasks x no OpenMP threads

MPI task timing breakdown:
Section |  min time  |  avg time  |  max time  |%varavg| %total
---------------------------------------------------------------
Pair    | 22.957     | 26.832     | 29.255     |  34.8 | 60.89
Bond    | 0.0066822  | 0.0075956  | 0.0098094  |   1.0 |  0.02
Kspace  | 8.3012     | 10.734     | 14.6       |  55.0 | 24.36
Neigh   | 0.17983    | 0.18032    | 0.1807     |   0.1 |  0.41
Comm    | 1.2937     | 1.3142     | 1.3328     |   1.0 |  2.98
Output  | 6.0417e-05 | 8.0216e-05 | 0.00027565 |   0.0 |  0.00
Modify  | 4.5079     | 4.7736     | 4.8192     |   3.7 | 10.83
Other   |            | 0.2233     |            |       |  0.51

Nlocal:            134 ave         141 max         124 min
Histogram: 1 0 1 0 4 0 0 2 3 1
Nghost:        4271.67 ave        4364 max        4206 min
Histogram: 3 0 1 1 3 1 1 0 1 1
Neighs:        49334.1 ave       55349 max       42264 min
Histogram: 1 0 2 1 2 0 2 1 2 1

Total # of neighbors = 592009
Ave neighs/atom = 368.1648
Ave special neighs/atom = 1.8656716
Neighbor list builds = 87
Dangerous builds = 0
timestep 0.5
run ${Ninptpre}
run 10000
PPPM initialization ...
  extracting TIP4P info from pair style
  using 12-bit tables for long-range coulomb (../kspace.cpp:342)
  G vector (1/distance) = 0.30994465
  grid = 24 24 24
  stencil order = 5
  estimated absolute RMS force accuracy = 0.0038296173
  estimated relative force accuracy = 1.1532779e-05
  using double precision KISS FFT
  3d grid and FFT values/proc = 5415 1152
Generated 0 of 6 mixed pair_coeff terms from arithmetic mixing rule
Per MPI rank memory allocation (min/avg/max) = 8.66 | 8.665 | 8.669 Mbytes
   Step        Density          Temp          Press          TotEng    
     40000   1.0928674      292.17874     -876.41458     -13680.726    
     50000   1.1249907      292.39034      1127.2553     -13814.35     
Loop time of 44.3987 on 12 procs for 10000 steps with 1608 atoms

Performance: 9.730 ns/day, 2.467 hours/ns, 225.232 timesteps/s
94.5% CPU use with 12 MPI tasks x no OpenMP threads

MPI task timing breakdown:
Section |  min time  |  avg time  |  max time  |%varavg| %total
---------------------------------------------------------------
Pair    | 23.726     | 27.417     | 29.591     |  28.8 | 61.75
Bond    | 0.0067759  | 0.0077214  | 0.0088461  |   0.8 |  0.02
Kspace  | 7.99       | 10.164     | 13.839     |  47.3 | 22.89
Neigh   | 0.45646    | 0.45716    | 0.45782    |   0.1 |  1.03
Comm    | 1.317      | 1.3325     | 1.3583     |   0.9 |  3.00
Output  | 6.435e-05  | 8.3462e-05 | 0.00027764 |   0.0 |  0.00
Modify  | 4.5291     | 4.794      | 4.8351     |   3.7 | 10.80
Other   |            | 0.2269     |            |       |  0.51

Nlocal:            134 ave         144 max         126 min
Histogram: 1 1 3 1 0 3 1 1 0 1
Nghost:        4338.67 ave        4380 max        4297 min
Histogram: 2 0 0 3 0 3 1 1 0 2
Neighs:        50418.1 ave       54789 max       45541 min
Histogram: 1 1 1 1 3 1 1 0 0 3

Total # of neighbors = 605017
Ave neighs/atom = 376.25435
Ave special neighs/atom = 1.8656716
Neighbor list builds = 221
Dangerous builds = 0
reset_timestep 0

# continuing the initialization with the final value of timestep
unfix integrate
fix integrate all npt temp ${Temp} ${Temp} 100.0 iso ${Pres} ${Pres} 1000.0
fix integrate all npt temp 298.15 ${Temp} 100.0 iso ${Pres} ${Pres} 1000.0
fix integrate all npt temp 298.15 298.15 100.0 iso ${Pres} ${Pres} 1000.0
fix integrate all npt temp 298.15 298.15 100.0 iso 1 ${Pres} 1000.0
fix integrate all npt temp 298.15 298.15 100.0 iso 1 1 1000.0

timestep ${tstep}
timestep 1


run ${Ninpt}
run 5000000
PPPM initialization ...
  extracting TIP4P info from pair style
  using 12-bit tables for long-range coulomb (../kspace.cpp:342)
  G vector (1/distance) = 0.31064141
  grid = 24 24 24
  stencil order = 5
  estimated absolute RMS force accuracy = 0.0037209808
  estimated relative force accuracy = 1.1205623e-05
  using double precision KISS FFT
  3d grid and FFT values/proc = 5415 1152
Generated 0 of 6 mixed pair_coeff terms from arithmetic mixing rule
Per MPI rank memory allocation (min/avg/max) = 8.661 | 8.666 | 8.669 Mbytes
   Step        Density          Temp          Press          TotEng    
         0   1.1249907      292.39034      692.04884     -13814.349    
    100000   1.111674       300.2671       804.43633     -13837.418    
    200000   1.1108592      307.27145     -758.83281     -13913.909    
    300000   1.1088389      297.72011      206.81563     -13910.129    
    400000   1.1209587      293.08072      482.29537     -13930.909    
    500000   1.1162312      302.09633     -274.10831     -13940.887    
    600000   1.1218701      288.98602      499.77588     -13911.752    
    700000   1.1134569      303.11206     -1011.0962     -13926.619    
    800000   1.1076867      294.18113     -909.69691     -13889.2      
    900000   1.102331       292.79399     -1558.0545     -13865.236    
   1000000   1.1090905      304.01407     -380.16124     -13910.291    
   1100000   1.1239198      299.28154      833.49775     -13943.514    
   1200000   1.1233565      283.92052     -688.8076      -14014.125    
   1300000   1.1234925      302.94297      505.57354     -13930.019    
   1400000   1.1034148      301.18678     -507.71322     -13917.904    
   1500000   1.1199806      299.57848     -422.4241      -14000.481    
   1600000   1.1178671      283.94081      1406.9955     -13974.409    
   1700000   1.1148119      288.49948     -635.383       -14001.66     
   1800000   1.1054018      298.06494     -1211.6844     -13851.829    
   1900000   1.1162804      309.33151      142.38345     -13893.16     
   2000000   1.1122008      312.92854     -550.36441     -13879.914    
   2100000   1.1220946      299.44569     -404.11806     -13904.468    
   2200000   1.1097582      292.96955      41.758056     -13972.111    
   2300000   1.1333417      304.85823      1121.3602     -13872.273    
   2400000   1.1120365      306.85439     -140.25761     -13863.024    
   2500000   1.106231       290.34917     -239.61366     -14002.452    
   2600000   1.1196166      295.32845      1071.6203     -13897.442    
   2700000   1.1175994      302.24275      253.88507     -13910.96     
   2800000   1.1139162      301.00348      379.89345     -13996.002    
   2900000   1.1123233      301.36661     -628.58867     -13916.805    
   3000000   1.1113504      292.46051     -208.23289     -13976.02     
   3100000   1.1227474      302.18513      88.854632     -13914.55     
   3200000   1.1146997      301.64096      113.08701     -13902.66     
   3300000   1.1060919      293.07627      94.805842     -13980.118    
   3400000   1.1236293      305.70387      1554.5734     -13888.075    
   3500000   1.1193616      294.13418      1028.6833     -13888.998    
   3600000   1.112828       302.64829      1001.9993     -13912.406    
   3700000   1.1152757      305.58513      493.54803     -13926.658    
   3800000   1.126988       288.19168      223.75731     -13973.8      
   3900000   1.1019171      292.36663     -974.42568     -13885.986    
   4000000   1.1084169      298.12142     -905.8666      -13922.313    
   4100000   1.1052853      299.22263     -199.57058     -13872.4      
   4200000   1.1063828      295.30103      840.38917     -13912.615    
   4300000   1.1178175      292.29813      79.770815     -13944.419    
   4400000   1.1060656      302.10417      159.442       -13977.004    
   4500000   1.100326       291.88048     -219.63933     -13948.121    
   4600000   1.1197782      295.92961     -533.48579     -13948.888    
   4700000   1.1163263      299.23962      178.58707     -14034.463    
   4800000   1.1065423      307.02087     -667.42435     -13896.024    
   4900000   1.0977912      305.448       -637.02192     -13896.225    
   5000000   1.1053413      300.70163      35.009537     -13912.773    
Loop time of 22931.7 on 12 procs for 5000000 steps with 1608 atoms

Performance: 18.839 ns/day, 1.274 hours/ns, 218.039 timesteps/s
93.7% CPU use with 12 MPI tasks x no OpenMP threads

MPI task timing breakdown:
Section |  min time  |  avg time  |  max time  |%varavg| %total
---------------------------------------------------------------
Pair    | 12830      | 13850      | 14607      | 580.7 | 60.40
Bond    | 3.4295     | 3.836      | 4.6556     |  17.8 |  0.02
Kspace  | 4676.5     | 5435.3     | 6463.9     | 928.4 | 23.70
Neigh   | 430.69     | 430.93     | 431.18     |   0.7 |  1.88
Comm    | 683.16     | 688.83     | 698.26     |  16.1 |  3.00
Output  | 0.003186   | 0.0042785  | 0.016025   |   5.4 |  0.00
Modify  | 2278.1     | 2409.6     | 2429.9     |  81.7 | 10.51
Other   |            | 112.9      |            |       |  0.49

Nlocal:            134 ave         143 max         124 min
Histogram: 1 0 1 3 2 0 2 0 1 2
Nghost:        4267.33 ave        4333 max        4200 min
Histogram: 1 3 0 0 2 1 1 1 1 2
Neighs:        49515.4 ave       57817 max       44358 min
Histogram: 4 0 0 4 0 1 0 2 0 1

Total # of neighbors = 594185
Ave neighs/atom = 369.51803
Ave special neighs/atom = 1.8656716
Neighbor list builds = 203993
Dangerous builds = 0
reset_timestep 0


#################### 3) Obtaining average volume in NPT ######################
# Creating restart files
restart ${Nf} 1.restart 2.restart
restart 100000 1.restart 2.restart

# Getting the average volume of the system
variable Volume equal vol
fix VoluAve all ave/time 1 ${Npnpt} ${Npnpt} v_Volume file volume.dat
fix VoluAve all ave/time 1 5000000 ${Npnpt} v_Volume file volume.dat
fix VoluAve all ave/time 1 5000000 5000000 v_Volume file volume.dat

variable Dens equal density
fix DensAve all ave/time 1 ${NBR} ${NBR} v_Dens file density.dat
fix DensAve all ave/time 1 50000 ${NBR} v_Dens file density.dat
fix DensAve all ave/time 1 50000 50000 v_Dens file density.dat

compute T1 all temp
fix TempAve1 all ave/time 1 ${NBR} ${NBR} c_T1 file temperatureNPT.dat
fix TempAve1 all ave/time 1 50000 ${NBR} c_T1 file temperatureNPT.dat
fix TempAve1 all ave/time 1 50000 50000 c_T1 file temperatureNPT.dat

compute P1 all pressure T1
fix PressAve1 all ave/time 1 ${NBR} ${NBR} c_P1 file pressureNPT.dat
fix PressAve1 all ave/time 1 50000 ${NBR} c_P1 file pressureNPT.dat
fix PressAve1 all ave/time 1 50000 50000 c_P1 file pressureNPT.dat

run ${Npnpt}
run 5000000
PPPM initialization ...
  extracting TIP4P info from pair style
  using 12-bit tables for long-range coulomb (../kspace.cpp:342)
  G vector (1/distance) = 0.31021786
  grid = 24 24 24
  stencil order = 5
  estimated absolute RMS force accuracy = 0.0037866758
  estimated relative force accuracy = 1.1403462e-05
  using double precision KISS FFT
  3d grid and FFT values/proc = 5415 1152
Generated 0 of 6 mixed pair_coeff terms from arithmetic mixing rule
Per MPI rank memory allocation (min/avg/max) = 8.661 | 8.666 | 8.67 Mbytes
   Step        Density          Temp          Press          TotEng    
         0   1.1053413      300.70163      28.465017     -13912.774    
    100000   1.1112354      304.17784      776.30182     -13948.154    
    200000   1.1249629      289.92803     -836.85821     -14005.08     
    300000   1.1333291      287.42871      527.01838     -13928.967    
    400000   1.1178853      297.93294      343.33288     -13913.627    
    500000   1.1171886      304.5122       625.27885     -13925.192    
    600000   1.1092125      296.47054      284.52587     -13904.011    
    700000   1.1144525      296.77003     -303.2538      -13942.144    
    800000   1.1270651      286.7019      -495.11962     -13928.8      
    900000   1.1122023      305.47243      288.07046     -13899.576    
   1000000   1.1236564      293.0169      -869.51104     -13937.058    
   1100000   1.1271605      293.40329      1434.657      -13986.276    
   1200000   1.1201526      297.1665       248.97238     -13957.789    
   1300000   1.1180122      299.93374     -140.91078     -13891.332    
   1400000   1.1276007      298.97273      751.90494     -13897.122    
   1500000   1.1139804      303.2832       550.00275     -13829.699    
   1600000   1.1168633      303.00759     -566.66574     -13926.56     
   1700000   1.1173061      301.59626     -758.8411      -13937.593    
   1800000   1.1172232      299.29982     -653.10891     -13921.124    
   1900000   1.1287979      296.98455      1171.7971     -13921.687    
   2000000   1.1181872      292.99096     -463.92763     -13979.434    
   2100000   1.1037106      290.32891     -2.9679258     -13914.963    
   2200000   1.1120844      297.35834      93.276194     -13936.923    
   2300000   1.1153617      302.674       -487.29451     -13944.035    
   2400000   1.1202734      297.46496     -319.39764     -13959.808    
   2500000   1.1237397      295.31774      831.0714      -13915.004    
   2600000   1.1209249      292.93878      511.25883     -13987.308    
   2700000   1.1344146      293.55815      61.36032      -13951.482    
   2800000   1.107922       291.19801     -372.49472     -13942.607    
   2900000   1.1137145      296.47087      353.01647     -13891.979    
   3000000   1.1028287      289.74211     -612.95789     -13956.252    
   3100000   1.1163773      300.02805     -100.48109     -13970.774    
   3200000   1.1237637      286.48075      1012.8782     -13971.701    
   3300000   1.1171562      309.56636     -671.27103     -13986.757    
   3400000   1.1300792      289.93706      218.52278     -13918.619    
   3500000   1.110057       294.29948     -592.31038     -13996.685    
   3600000   1.1058998      289.29513     -609.48399     -13977.998    
   3700000   1.0944994      286.92966     -275.4054      -13901.045    
   3800000   1.120939       291.61488      746.74099     -13987.868    
   3900000   1.0990242      313.51989      584.93937     -13862.804    
   4000000   1.1031998      295.32794      157.92933     -13847.133    
   4100000   1.1130047      294.77107      480.42643     -13889.824    
   4200000   1.1143976      295.40979      991.20529     -13863.476    
   4300000   1.11356        286.48105      683.67088     -13942.399    
   4400000   1.1104745      306.89472     -880.55198     -13906.899    
   4500000   1.1168794      286.74203      1188.9212     -13966.553    
   4600000   1.1178645      300.7538      -740.86942     -13917.945    
   4700000   1.0951784      306.92883     -823.02062     -13828.185    
   4800000   1.118402       294.28994     -210.64526     -13960.829    
   4900000   1.1124708      311.46226      5.7119131     -13878.959    
   5000000   1.1104816      310.61386      265.08138     -13831.23     
Loop time of 23074.3 on 12 procs for 5000000 steps with 1608 atoms

Performance: 18.722 ns/day, 1.282 hours/ns, 216.691 timesteps/s
93.7% CPU use with 12 MPI tasks x no OpenMP threads

MPI task timing breakdown:
Section |  min time  |  avg time  |  max time  |%varavg| %total
---------------------------------------------------------------
Pair    | 12788      | 13832      | 14624      | 553.1 | 59.95
Bond    | 3.5099     | 3.9135     | 4.718      |  16.6 |  0.02
Kspace  | 4607.7     | 5401.3     | 6452.6     | 886.0 | 23.41
Neigh   | 430.62     | 430.79     | 431.06     |   0.6 |  1.87
Comm    | 684.58     | 690.52     | 699.96     |  16.2 |  2.99
Output  | 0.22013    | 0.22073    | 0.22694    |   0.4 |  0.00
Modify  | 2471.4     | 2602.5     | 2621.9     |  78.3 | 11.28
Other   |            | 113        |            |       |  0.49

Nlocal:            134 ave         148 max         124 min
Histogram: 1 1 3 0 2 3 1 0 0 1
Nghost:        4311.67 ave        4354 max        4261 min
Histogram: 1 1 0 2 2 1 1 1 1 2
Neighs:        49771.2 ave       53570 max       45737 min
Histogram: 1 2 0 2 1 1 0 1 3 1

Total # of neighbors = 597254
Ave neighs/atom = 371.42662
Ave special neighs/atom = 1.8656716
Neighbor list builds = 204030
Dangerous builds = 0

#################### 4) Initializing the NVT ensemble ####################
# scaling the size of the system to the average volume
variable sidesize equal (f_VoluAve^(1.0/3.0))    # get the volume
variable xlow equal xlo
variable ylow equal ylo
variable zlow equal zlo
variable xhig equal (xlo+${sidesize})
variable xhig equal (xlo+25.62752732978)
variable yhig equal (ylo+${sidesize})
variable yhig equal (ylo+25.62752732978)
variable zhig equal (zlo+${sidesize})
variable zhig equal (zlo+25.62752732978)
change_box all x final ${xlow} ${xhig} y final ${ylow} ${yhig} z final ${zlow} ${zhig}
change_box all x final 0.36044437188141 ${xhig} y final ${ylow} ${yhig} z final ${zlow} ${zhig}
change_box all x final 0.36044437188141 25.9879717016614 y final ${ylow} ${yhig} z final ${zlow} ${zhig}
change_box all x final 0.36044437188141 25.9879717016614 y final 0.36044437188141 ${yhig} z final ${zlow} ${zhig}
change_box all x final 0.36044437188141 25.9879717016614 y final 0.36044437188141 25.9879717016614 z final ${zlow} ${zhig}
change_box all x final 0.36044437188141 25.9879717016614 y final 0.36044437188141 25.9879717016614 z final 0.36044437188141 ${zhig}
change_box all x final 0.36044437188141 25.9879717016614 y final 0.36044437188141 25.9879717016614 z final 0.36044437188141 25.9879717016614
Changing box ...
  orthogonal box = (0.36044437 0.36044437 0.36044437) to (25.987972 26.019065 26.019065)
  orthogonal box = (0.36044437 0.36044437 0.36044437) to (25.987972 25.987972 26.019065)
  orthogonal box = (0.36044437 0.36044437 0.36044437) to (25.987972 25.987972 25.987972)
unfix DensAve
unfix VoluAve
unfix TempAve1
unfix PressAve1

# changing the ensemble to NVT
unfix integrate
fix integrate all nvt temp ${Temp} ${Temp} 10.0
fix integrate all nvt temp 298.15 ${Temp} 10.0
fix integrate all nvt temp 298.15 298.15 10.0

timestep 0.001
run ${Ninvtpre}
run 10000
PPPM initialization ...
  extracting TIP4P info from pair style
  using 12-bit tables for long-range coulomb (../kspace.cpp:342)
  G vector (1/distance) = 0.31041691
  grid = 24 24 24
  stencil order = 5
  estimated absolute RMS force accuracy = 0.003755669
  estimated relative force accuracy = 1.1310086e-05
  using double precision KISS FFT
  3d grid and FFT values/proc = 5415 1152
Generated 0 of 6 mixed pair_coeff terms from arithmetic mixing rule
Per MPI rank memory allocation (min/avg/max) = 8.661 | 8.666 | 8.67 Mbytes
   Step        Density          Temp          Press          TotEng    
   5000000   1.1145284      310.61386      3436.8558     -13811.251    
   5010000   1.1145284      303.73123      1089.3912     -13861.441    
Loop time of 29.9055 on 12 procs for 10000 steps with 1608 atoms

Performance: 0.029 ns/day, 830.708 hours/ns, 334.387 timesteps/s
95.0% CPU use with 12 MPI tasks x no OpenMP threads

MPI task timing breakdown:
Section |  min time  |  avg time  |  max time  |%varavg| %total
---------------------------------------------------------------
Pair    | 16.953     | 18.884     | 20.084     |  21.8 | 63.14
Bond    | 0.0020542  | 0.0039186  | 0.0052098  |   1.4 |  0.01
Kspace  | 7.3212     | 8.4477     | 10.376     |  32.0 | 28.25
Neigh   | 0          | 0          | 0          |   0.0 |  0.00
Comm    | 1.2856     | 1.3512     | 1.3985     |   2.5 |  4.52
Output  | 6.3521e-05 | 8.1885e-05 | 0.00027281 |   0.0 |  0.00
Modify  | 1.0359     | 1.0474     | 1.0567     |   0.6 |  3.50
Other   |            | 0.1717     |            |       |  0.57

Nlocal:            134 ave         147 max         124 min
Histogram: 1 0 1 3 2 3 1 0 0 1
Nghost:         4314.5 ave        4358 max        4265 min
Histogram: 1 1 1 1 1 3 0 1 1 2
Neighs:        49954.9 ave       53792 max       46145 min
Histogram: 2 1 1 2 0 1 0 2 2 1

Total # of neighbors = 599459
Ave neighs/atom = 372.79789
Ave special neighs/atom = 1.8656716
Neighbor list builds = 0
Dangerous builds = 0
timestep 0.01
run ${Ninvtpre}
run 10000
PPPM initialization ...
  extracting TIP4P info from pair style
  using 12-bit tables for long-range coulomb (../kspace.cpp:342)
  G vector (1/distance) = 0.31041691
  grid = 24 24 24
  stencil order = 5
  estimated absolute RMS force accuracy = 0.003755669
  estimated relative force accuracy = 1.1310086e-05
  using double precision KISS FFT
  3d grid and FFT values/proc = 5415 1152
Generated 0 of 6 mixed pair_coeff terms from arithmetic mixing rule
Per MPI rank memory allocation (min/avg/max) = 8.661 | 8.666 | 8.67 Mbytes
   Step        Density          Temp          Press          TotEng    
   5010000   1.1145284      303.73123      1089.3339     -13861.441    
   5020000   1.1145284      292.89953      532.38966     -13941.306    
Loop time of 30.0071 on 12 procs for 10000 steps with 1608 atoms

Performance: 0.288 ns/day, 83.353 hours/ns, 333.255 timesteps/s
94.7% CPU use with 12 MPI tasks x no OpenMP threads

MPI task timing breakdown:
Section |  min time  |  avg time  |  max time  |%varavg| %total
---------------------------------------------------------------
Pair    | 17.059     | 18.844     | 20.09      |  21.1 | 62.80
Bond    | 0.0022775  | 0.0038852  | 0.0052714  |   1.2 |  0.01
Kspace  | 7.3547     | 8.6072     | 10.391     |  30.9 | 28.68
Neigh   | 0.0083564  | 0.0083645  | 0.0083747  |   0.0 |  0.03
Comm    | 1.2423     | 1.3063     | 1.3475     |   2.3 |  4.35
Output  | 6.4401e-05 | 8.3374e-05 | 0.00027632 |   0.0 |  0.00
Modify  | 1.0549     | 1.0659     | 1.0766     |   0.6 |  3.55
Other   |            | 0.1715     |            |       |  0.57

Nlocal:            134 ave         147 max         126 min
Histogram: 2 3 2 0 1 0 2 1 0 1
Nghost:        4310.42 ave        4359 max        4267 min
Histogram: 2 1 0 1 1 3 3 0 0 1
Neighs:        49953.8 ave       56441 max       46717 min
Histogram: 3 2 1 0 4 1 0 0 0 1

Total # of neighbors = 599445
Ave neighs/atom = 372.78918
Ave special neighs/atom = 1.8656716
Neighbor list builds = 4
Dangerous builds = 0
timestep 0.1
run ${Ninvtpre}
run 10000
PPPM initialization ...
  extracting TIP4P info from pair style
  using 12-bit tables for long-range coulomb (../kspace.cpp:342)
  G vector (1/distance) = 0.31041691
  grid = 24 24 24
  stencil order = 5
  estimated absolute RMS force accuracy = 0.003755669
  estimated relative force accuracy = 1.1310086e-05
  using double precision KISS FFT
  3d grid and FFT values/proc = 5415 1152
Generated 0 of 6 mixed pair_coeff terms from arithmetic mixing rule
Per MPI rank memory allocation (min/avg/max) = 8.661 | 8.666 | 8.67 Mbytes
   Step        Density          Temp          Press          TotEng    
   5020000   1.1145284      292.89953      532.1645      -13941.306    
   5030000   1.1145284      291.56974      869.73907     -13929.221    
Loop time of 31.5301 on 12 procs for 10000 steps with 1608 atoms

Performance: 2.740 ns/day, 8.758 hours/ns, 317.157 timesteps/s
92.8% CPU use with 12 MPI tasks x no OpenMP threads

MPI task timing breakdown:
Section |  min time  |  avg time  |  max time  |%varavg| %total
---------------------------------------------------------------
Pair    | 16.78      | 19.012     | 21.485     |  30.1 | 60.30
Bond    | 0.0020905  | 0.0038429  | 0.0052038  |   1.2 |  0.01
Kspace  | 7.4361     | 9.858      | 12.074     |  40.9 | 31.27
Neigh   | 0.082955   | 0.083016   | 0.0831     |   0.0 |  0.26
Comm    | 1.2632     | 1.3325     | 1.3912     |   3.4 |  4.23
Output  | 6.5102e-05 | 8.479e-05  | 0.00028586 |   0.0 |  0.00
Modify  | 1.0675     | 1.0726     | 1.077      |   0.3 |  3.40
Other   |            | 0.1682     |            |       |  0.53

Nlocal:            134 ave         146 max         117 min
Histogram: 1 0 1 1 2 1 1 3 0 2
Nghost:        4315.83 ave        4381 max        4274 min
Histogram: 3 0 2 2 1 1 2 0 0 1
Neighs:        49949.1 ave       54787 max       43254 min
Histogram: 2 0 0 1 1 2 1 1 2 2

Total # of neighbors = 599389
Ave neighs/atom = 372.75435
Ave special neighs/atom = 1.8656716
Neighbor list builds = 39
Dangerous builds = 0
timestep 0.2
run ${Ninvtpre}
run 10000
PPPM initialization ...
  extracting TIP4P info from pair style
  using 12-bit tables for long-range coulomb (../kspace.cpp:342)
  G vector (1/distance) = 0.31041691
  grid = 24 24 24
  stencil order = 5
  estimated absolute RMS force accuracy = 0.003755669
  estimated relative force accuracy = 1.1310086e-05
  using double precision KISS FFT
  3d grid and FFT values/proc = 5415 1152
Generated 0 of 6 mixed pair_coeff terms from arithmetic mixing rule
Per MPI rank memory allocation (min/avg/max) = 8.661 | 8.666 | 8.67 Mbytes
   Step        Density          Temp          Press          TotEng    
   5030000   1.1145284      291.56974      869.66571     -13929.221    
   5040000   1.1145284      306.96468     -475.09879     -13905.491    
Loop time of 31.6802 on 12 procs for 10000 steps with 1608 atoms

Performance: 5.455 ns/day, 4.400 hours/ns, 315.655 timesteps/s
92.8% CPU use with 12 MPI tasks x no OpenMP threads

MPI task timing breakdown:
Section |  min time  |  avg time  |  max time  |%varavg| %total
---------------------------------------------------------------
Pair    | 16.102     | 19.045     | 21.366     |  31.6 | 60.12
Bond    | 0.0021209  | 0.0038516  | 0.0051403  |   1.2 |  0.01
Kspace  | 7.6191     | 9.8896     | 12.785     |  43.0 | 31.22
Neigh   | 0.1785     | 0.17863    | 0.17879    |   0.0 |  0.56
Comm    | 1.2639     | 1.3277     | 1.3725     |   3.0 |  4.19
Output  | 6.4201e-05 | 8.2475e-05 | 0.00027383 |   0.0 |  0.00
Modify  | 1.0592     | 1.0649     | 1.0717     |   0.4 |  3.36
Other   |            | 0.1704     |            |       |  0.54

Nlocal:            134 ave         152 max         120 min
Histogram: 1 1 2 2 1 1 2 1 0 1
Nghost:        4297.67 ave        4342 max        4263 min
Histogram: 1 0 3 1 3 2 1 0 0 1
Neighs:        49937.2 ave       57463 max       43606 min
Histogram: 2 0 2 2 1 0 2 1 1 1

Total # of neighbors = 599247
Ave neighs/atom = 372.66604
Ave special neighs/atom = 1.8656716
Neighbor list builds = 84
Dangerous builds = 0
timestep 0.5
run ${Ninvtpre}
run 10000
PPPM initialization ...
  extracting TIP4P info from pair style
  using 12-bit tables for long-range coulomb (../kspace.cpp:342)
  G vector (1/distance) = 0.31041691
  grid = 24 24 24
  stencil order = 5
  estimated absolute RMS force accuracy = 0.003755669
  estimated relative force accuracy = 1.1310086e-05
  using double precision KISS FFT
  3d grid and FFT values/proc = 5415 1152
Generated 0 of 6 mixed pair_coeff terms from arithmetic mixing rule
Per MPI rank memory allocation (min/avg/max) = 8.661 | 8.666 | 8.67 Mbytes
   Step        Density          Temp          Press          TotEng    
   5040000   1.1145284      306.96468     -477.52941     -13905.491    
   5050000   1.1145284      305.86374     -701.85648     -13868.719    
Loop time of 31.6944 on 12 procs for 10000 steps with 1608 atoms

Performance: 13.630 ns/day, 1.761 hours/ns, 315.513 timesteps/s
93.8% CPU use with 12 MPI tasks x no OpenMP threads

MPI task timing breakdown:
Section |  min time  |  avg time  |  max time  |%varavg| %total
---------------------------------------------------------------
Pair    | 17.289     | 19.228     | 21.073     |  25.4 | 60.67
Bond    | 0.0019166  | 0.0038259  | 0.0050859  |   1.3 |  0.01
Kspace  | 7.6247     | 9.4306     | 11.332     |  35.7 | 29.75
Neigh   | 0.42946    | 0.42964    | 0.4299     |   0.0 |  1.36
Comm    | 1.3031     | 1.3426     | 1.3819     |   2.2 |  4.24
Output  | 6.4902e-05 | 8.4611e-05 | 0.00028475 |   0.0 |  0.00
Modify  | 1.083      | 1.0883     | 1.0962     |   0.3 |  3.43
Other   |            | 0.1709     |            |       |  0.54

Nlocal:            134 ave         145 max         119 min
Histogram: 1 1 1 1 0 1 3 0 1 3
Nghost:         4282.5 ave        4313 max        4238 min
Histogram: 1 1 0 1 1 1 2 1 3 1
Neighs:        49954.9 ave       55789 max       43841 min
Histogram: 2 1 1 0 1 0 3 2 1 1

Total # of neighbors = 599459
Ave neighs/atom = 372.79789
Ave special neighs/atom = 1.8656716
Neighbor list builds = 203
Dangerous builds = 0

unfix integrate
fix integrate all nvt temp ${Temp} ${Temp} 100.0
fix integrate all nvt temp 298.15 ${Temp} 100.0
fix integrate all nvt temp 298.15 298.15 100.0
# continuing the initialization with the final value of timestep
timestep ${tstep}
timestep 1

run ${Ninvt}
run 2500000
PPPM initialization ...
  extracting TIP4P info from pair style
  using 12-bit tables for long-range coulomb (../kspace.cpp:342)
  G vector (1/distance) = 0.31041691
  grid = 24 24 24
  stencil order = 5
  estimated absolute RMS force accuracy = 0.003755669
  estimated relative force accuracy = 1.1310086e-05
  using double precision KISS FFT
  3d grid and FFT values/proc = 5415 1152
Generated 0 of 6 mixed pair_coeff terms from arithmetic mixing rule
Per MPI rank memory allocation (min/avg/max) = 8.661 | 8.666 | 8.67 Mbytes
   Step        Density          Temp          Press          TotEng    
   5050000   1.1145284      305.86374     -706.26422     -13868.719    
   5100000   1.1145284      297.17864      361.72367     -13936.195    
   5200000   1.1145284      303.5609       435.6144      -13879.616    
   5300000   1.1145284      280.90331     -316.85802     -13951.883    
   5400000   1.1145284      296.23635     -829.66878     -13993.272    
   5500000   1.1145284      307.89987      394.09745     -13869.367    
   5600000   1.1145284      300.94704     -244.19751     -13894.262    
   5700000   1.1145284      293.11984     -836.29256     -13939.467    
   5800000   1.1145284      301.38743     -253.95305     -13958.249    
   5900000   1.1145284      293.84682      99.120393     -13933.378    
   6000000   1.1145284      296.35158     -449.45821     -13951.991    
   6100000   1.1145284      302.96849     -143.01674     -13949.637    
   6200000   1.1145284      291.15259     -518.46704     -13932.537    
   6300000   1.1145284      301.31282      500.65741     -13888.633    
   6400000   1.1145284      292.96841     -508.70436     -13853.511    
   6500000   1.1145284      290.08279      969.28979     -13930.086    
   6600000   1.1145284      288.74497     -1160.8536     -13975.14     
   6700000   1.1145284      298.57819      686.39186     -13966.009    
   6800000   1.1145284      290.59376     -233.49794     -13909.706    
   6900000   1.1145284      285.20151      999.77017     -13912.574    
   7000000   1.1145284      302.67205      919.92494     -13936.247    
   7100000   1.1145284      303.11956      39.07482      -13912.468    
   7200000   1.1145284      297.10304     -448.56294     -13911.671    
   7300000   1.1145284      285.69794     -265.42816     -13959.625    
   7400000   1.1145284      291.75639     -1378.0138     -14023.201    
   7500000   1.1145284      284.44281     -784.64739     -13936.361    
   7550000   1.1145284      309.206       -83.957621     -13931.779    
Loop time of 8100.75 on 12 procs for 2500000 steps with 1608 atoms

Performance: 26.664 ns/day, 0.900 hours/ns, 308.613 timesteps/s
93.4% CPU use with 12 MPI tasks x no OpenMP threads

MPI task timing breakdown:
Section |  min time  |  avg time  |  max time  |%varavg| %total
---------------------------------------------------------------
Pair    | 4467.3     | 4834.8     | 5100.2     | 329.3 | 59.68
Bond    | 0.51026    | 0.95556    | 1.2391     |  18.3 |  0.01
Kspace  | 2122.4     | 2386.7     | 2748.5     | 468.4 | 29.46
Neigh   | 213.05     | 213.14     | 213.28     |   0.5 |  2.63
Comm    | 342.21     | 345.86     | 352.13     |  17.8 |  4.27
Output  | 0.11       | 0.11033    | 0.11381    |   0.3 |  0.00
Modify  | 275.41     | 276.28     | 278.25     |   5.3 |  3.41
Other   |            | 42.92      |            |       |  0.53

Nlocal:            134 ave         148 max         118 min
Histogram: 1 0 1 1 2 2 0 4 0 1
Nghost:        4317.67 ave        4389 max        4267 min
Histogram: 3 0 1 3 1 1 1 0 1 1
Neighs:        49923.6 ave       55582 max       42433 min
Histogram: 1 0 1 0 2 2 1 4 0 1

Total # of neighbors = 599083
Ave neighs/atom = 372.56405
Ave special neighs/atom = 1.8656716
Neighbor list builds = 100898
Dangerous builds = 0

reset_timestep 0

#################### 2) Production in NVT ensemble #####################
# computing average total energy, pontential energy, temperature, and pressure over time
variable TotEn equal etotal
fix TEAve all ave/time ${Ne} ${Nr} ${Nf} v_TotEn file TotalE.dat
fix TEAve all ave/time 1 ${Nr} ${Nf} v_TotEn file TotalE.dat
fix TEAve all ave/time 1 100000 ${Nf} v_TotEn file TotalE.dat
fix TEAve all ave/time 1 100000 100000 v_TotEn file TotalE.dat

variable PotEn equal pe
fix PEAve all ave/time ${Ne} ${Nr} ${Nf} v_PotEn file PotenE.dat
fix PEAve all ave/time 1 ${Nr} ${Nf} v_PotEn file PotenE.dat
fix PEAve all ave/time 1 100000 ${Nf} v_PotEn file PotenE.dat
fix PEAve all ave/time 1 100000 100000 v_PotEn file PotenE.dat

compute T all temp
fix TempAve all ave/time ${Ne} ${Nr} ${Nf} c_T file temperature.dat
fix TempAve all ave/time 1 ${Nr} ${Nf} c_T file temperature.dat
fix TempAve all ave/time 1 100000 ${Nf} c_T file temperature.dat
fix TempAve all ave/time 1 100000 100000 c_T file temperature.dat

compute P all pressure T
fix PressAve all ave/time ${Ne} ${Nr} ${Nf} c_P file pressure.dat
fix PressAve all ave/time 1 ${Nr} ${Nf} c_P file pressure.dat
fix PressAve all ave/time 1 100000 ${Nf} c_P file pressure.dat
fix PressAve all ave/time 1 100000 100000 c_P file pressure.dat


# computing self-diffusion and Onsager coefficients using the OCTP plugin
compute positions all position
fix f1 all ordern diffusivity ${Ndiff} ${Nwrit} c_positions nb ${nb} nbe ${nbe}
fix f1 all ordern diffusivity 1000 ${Nwrit} c_positions nb ${nb} nbe ${nbe}
fix f1 all ordern diffusivity 1000 100000 c_positions nb ${nb} nbe ${nbe}
fix f1 all ordern diffusivity 1000 100000 c_positions nb 10 nbe ${nbe}
fix f1 all ordern diffusivity 1000 100000 c_positions nb 10 nbe 20


# computing shear and bulk viscosities  using the OCTP plugin
fix f2 all ordern viscosity ${Nvisc} ${Nwrit} c_P nb ${nb} nbe ${nbe}
fix f2 all ordern viscosity 5 ${Nwrit} c_P nb ${nb} nbe ${nbe}
fix f2 all ordern viscosity 5 100000 c_P nb ${nb} nbe ${nbe}
fix f2 all ordern viscosity 5 100000 c_P nb 10 nbe ${nbe}
fix f2 all ordern viscosity 5 100000 c_P nb 10 nbe 20


# computing thermal conductivity using the OCTP plugin
compute KE all ke/atom
compute PE all pe/atom
compute ST all stress/atom NULL virial
compute heatflux all heat/flux KE PE ST
fix f3 all ordern thermalconductivity ${Ncond} ${Nwrit} c_heatflux nb ${nb} nbe ${nbe}
fix f3 all ordern thermalconductivity 5 ${Nwrit} c_heatflux nb ${nb} nbe ${nbe}
fix f3 all ordern thermalconductivity 5 100000 c_heatflux nb ${nb} nbe ${nbe}
fix f3 all ordern thermalconductivity 5 100000 c_heatflux nb 10 nbe ${nbe}
fix f3 all ordern thermalconductivity 5 100000 c_heatflux nb 10 nbe 20


# computing the RDF for all group pairs
compute rdfs all rdf/ext Nbin ${binnum} Nwrite ${Nrdfw}
compute rdfs all rdf/ext Nbin 2000 Nwrite ${Nrdfw}
compute rdfs all rdf/ext Nbin 2000 Nwrite 1000
fix f4 all ave/time 1 1 ${Nrdfe} c_rdfs
fix f4 all ave/time 1 1 1000 c_rdfs

dump trjectory all xyz ${Nd} movie.xyz
dump trjectory all xyz 100000 movie.xyz
dump_modify trjectory element Ow H K Cl

run ${Nrun1}
run 250000

CITE-CITE-CITE-CITE-CITE-CITE-CITE-CITE-CITE-CITE-CITE-CITE-CITE

Your simulation uses code contributions which should be cited:

- fix ave/ordern command:

@Article{Jamali2019,
 author = {Jamali, Seyed Hossein and Wolf, Ludger and Becker, Tim M. and de Groen, Mariëtte and Ramdin, Mahinder and Hartkamp, Remco and Bardow, André and Vlugt, Thijs J. H. and Moultos, Othonas A.},
 title = {OCTP: A Tool for On-the-Fly Calculation of Transport Properties of Fluids with the Order-n Algorithm in LAMMPS},
 doi = {10.1021/acs.jcim.8b00939},
 journal = {J. Chem. Inf. Model.},
 year = {2019},
 volume = {59},
 pages = {1290-1294}
 }

CITE-CITE-CITE-CITE-CITE-CITE-CITE-CITE-CITE-CITE-CITE-CITE-CITE

PPPM initialization ...
  extracting TIP4P info from pair style
  using 12-bit tables for long-range coulomb (../kspace.cpp:342)
  G vector (1/distance) = 0.31041691
  grid = 24 24 24
  stencil order = 5
  estimated absolute RMS force accuracy = 0.003755669
  estimated relative force accuracy = 1.1310086e-05
  using double precision KISS FFT
  3d grid and FFT values/proc = 5415 1152
Generated 0 of 6 mixed pair_coeff terms from arithmetic mixing rule
Per MPI rank memory allocation (min/avg/max) = 14.4 | 14.41 | 14.41 Mbytes
   Step        Density          Temp          Press          TotEng    
         0   1.1145284      309.206       -84.200829     -13931.779    
    100000   1.1145284      286.86086      749.61972     -13946.638    
    200000   1.1145284      300.27797      1035.1454     -13847.167    
    250000   1.1145284      294.85482      875.17815     -13910.426    
Loop time of 1279.41 on 12 procs for 250000 steps with 1608 atoms

Performance: 16.883 ns/day, 1.422 hours/ns, 195.403 timesteps/s
93.5% CPU use with 12 MPI tasks x no OpenMP threads

MPI task timing breakdown:
Section |  min time  |  avg time  |  max time  |%varavg| %total
---------------------------------------------------------------
Pair    | 725.84     | 787.01     | 834.15     | 132.7 | 61.51
Bond    | 3.3355     | 3.4815     | 3.5404     |   2.7 |  0.27
Kspace  | 305.91     | 353.32     | 414.38     | 198.7 | 27.62
Neigh   | 21.367     | 21.378     | 21.392     |   0.1 |  1.67
Comm    | 35.636     | 35.869     | 36.292     |   3.2 |  2.80
Output  | 0.072981   | 0.073292   | 0.073629   |   0.1 |  0.01
Modify  | 73.18      | 73.302     | 73.489     |   1.1 |  5.73
Other   |            | 4.967      |            |       |  0.39

Nlocal:            134 ave         143 max         124 min
Histogram: 1 1 1 1 1 1 2 2 1 1
Nghost:        4273.33 ave        4317 max        4226 min
Histogram: 2 1 2 0 1 0 1 1 1 3
Neighs:        49950.3 ave       53675 max       45623 min
Histogram: 1 1 2 1 1 1 0 2 0 3

Total # of neighbors = 599404
Ave neighs/atom = 372.76368
Ave special neighs/atom = 1.8656716
Neighbor list builds = 10111
Dangerous builds = 0
shell bash copy_files.sh dt_${tstep} 00.25Mstep
shell bash copy_files.sh dt_1 00.25Mstep

run ${Nrun1}
run 250000
PPPM initialization ...
  extracting TIP4P info from pair style
  using 12-bit tables for long-range coulomb (../kspace.cpp:342)
  G vector (1/distance) = 0.31041691
  grid = 24 24 24
  stencil order = 5
  estimated absolute RMS force accuracy = 0.003755669
  estimated relative force accuracy = 1.1310086e-05
  using double precision KISS FFT
  3d grid and FFT values/proc = 5415 1152
Generated 0 of 6 mixed pair_coeff terms from arithmetic mixing rule
Per MPI rank memory allocation (min/avg/max) = 14.4 | 14.41 | 14.41 Mbytes
   Step        Density          Temp          Press          TotEng    
    250000   1.1145284      294.85482      874.92726     -13910.426    
    300000   1.1145284      315.12202     -19.785313     -13872.634    
    400000   1.1145284      295.1377       1631.9791     -13950.081    
    500000   1.1145284      293.516        364.86111     -13899.2      
Loop time of 1289.26 on 12 procs for 250000 steps with 1608 atoms

Performance: 16.754 ns/day, 1.433 hours/ns, 193.909 timesteps/s
93.2% CPU use with 12 MPI tasks x no OpenMP threads

MPI task timing breakdown:
Section |  min time  |  avg time  |  max time  |%varavg| %total
---------------------------------------------------------------
Pair    | 730.02     | 788.01     | 855.5      | 151.6 | 61.12
Bond    | 3.336      | 3.4737     | 3.5354     |   2.8 |  0.27
Kspace  | 294.21     | 362        | 420.22     | 224.3 | 28.08
Neigh   | 21.347     | 21.359     | 21.374     |   0.1 |  1.66
Comm    | 35.591     | 35.894     | 36.388     |   3.5 |  2.78
Output  | 0.10642    | 0.10669    | 0.10729    |   0.1 |  0.01
Modify  | 73.33      | 73.443     | 73.571     |   0.9 |  5.70
Other   |            | 4.966      |            |       |  0.39

Nlocal:            134 ave         143 max         123 min
Histogram: 1 0 0 1 2 3 2 0 2 1
Nghost:        4314.33 ave        4357 max        4261 min
Histogram: 1 1 3 0 0 1 1 1 1 3
Neighs:        49919.6 ave       54504 max       45296 min
Histogram: 1 1 1 1 1 3 1 2 0 1

Total # of neighbors = 599035
Ave neighs/atom = 372.5342
Ave special neighs/atom = 1.8656716
Neighbor list builds = 10074
Dangerous builds = 0
shell bash copy_files.sh dt_${tstep} 00.50Mstep
shell bash copy_files.sh dt_1 00.50Mstep

run ${Nrun1}
run 250000
PPPM initialization ...
  extracting TIP4P info from pair style
  using 12-bit tables for long-range coulomb (../kspace.cpp:342)
  G vector (1/distance) = 0.31041691
  grid = 24 24 24
  stencil order = 5
  estimated absolute RMS force accuracy = 0.003755669
  estimated relative force accuracy = 1.1310086e-05
  using double precision KISS FFT
  3d grid and FFT values/proc = 5415 1152
Generated 0 of 6 mixed pair_coeff terms from arithmetic mixing rule
Per MPI rank memory allocation (min/avg/max) = 14.4 | 14.41 | 14.41 Mbytes
   Step        Density          Temp          Press          TotEng    
    500000   1.1145284      293.516        364.78232     -13899.2      
    600000   1.1145284      296.79037      737.9031      -13932.727    
    700000   1.1145284      300.1992      -386.57441     -13926.69     
    750000   1.1145284      292.3605       100.79148     -13984.648    
Loop time of 1283.62 on 12 procs for 250000 steps with 1608 atoms

Performance: 16.827 ns/day, 1.426 hours/ns, 194.761 timesteps/s
93.4% CPU use with 12 MPI tasks x no OpenMP threads

MPI task timing breakdown:
Section |  min time  |  avg time  |  max time  |%varavg| %total
---------------------------------------------------------------
Pair    | 732.51     | 787.88     | 847.31     | 135.3 | 61.38
Bond    | 3.3236     | 3.4708     | 3.5366     |   2.9 |  0.27
Kspace  | 297.04     | 356.76     | 411.99     | 201.6 | 27.79
Neigh   | 21.305     | 21.314     | 21.326     |   0.1 |  1.66
Comm    | 35.546     | 35.827     | 36.271     |   3.3 |  2.79
Output  | 0.071123   | 0.071295   | 0.071496   |   0.0 |  0.01
Modify  | 73.21      | 73.348     | 73.481     |   1.0 |  5.71
Other   |            | 4.946      |            |       |  0.39

Nlocal:            134 ave         142 max         128 min
Histogram: 2 2 2 1 1 0 0 1 1 2
Nghost:        4313.92 ave        4365 max        4249 min
Histogram: 1 0 0 2 2 2 1 2 1 1
Neighs:        49960.2 ave       56977 max       44115 min
Histogram: 1 3 1 1 2 0 1 0 1 2

Total # of neighbors = 599523
Ave neighs/atom = 372.83769
Ave special neighs/atom = 1.8656716
Neighbor list builds = 10067
Dangerous builds = 0
shell bash copy_files.sh dt_${tstep} 00.75Mstep
shell bash copy_files.sh dt_1 00.75Mstep

run ${Nrun1}
run 250000
PPPM initialization ...
  extracting TIP4P info from pair style
  using 12-bit tables for long-range coulomb (../kspace.cpp:342)
  G vector (1/distance) = 0.31041691
  grid = 24 24 24
  stencil order = 5
  estimated absolute RMS force accuracy = 0.003755669
  estimated relative force accuracy = 1.1310086e-05
  using double precision KISS FFT
  3d grid and FFT values/proc = 5415 1152
Generated 0 of 6 mixed pair_coeff terms from arithmetic mixing rule
Per MPI rank memory allocation (min/avg/max) = 14.4 | 14.41 | 14.41 Mbytes
   Step        Density          Temp          Press          TotEng    
    750000   1.1145284      292.3605       101.00552     -13984.648    
    800000   1.1145284      299.26268      52.706093     -13886.167    
    900000   1.1145284      306.95686     -426.50329     -13919.607    
   1000000   1.1145284      303.83858     -322.07651     -13900.056    
Loop time of 1277.77 on 12 procs for 250000 steps with 1608 atoms

Performance: 16.904 ns/day, 1.420 hours/ns, 195.654 timesteps/s
93.5% CPU use with 12 MPI tasks x no OpenMP threads

MPI task timing breakdown:
Section |  min time  |  avg time  |  max time  |%varavg| %total
---------------------------------------------------------------
Pair    | 732.86     | 786.53     | 838        | 134.9 | 61.56
Bond    | 3.3279     | 3.4832     | 3.5452     |   3.0 |  0.27
Kspace  | 300.41     | 352.18     | 406.07     | 202.3 | 27.56
Neigh   | 21.25      | 21.259     | 21.275     |   0.1 |  1.66
Comm    | 35.517     | 35.818     | 36.305     |   3.6 |  2.80
Output  | 0.10642    | 0.10662    | 0.10691    |   0.0 |  0.01
Modify  | 73.344     | 73.435     | 73.566     |   0.8 |  5.75
Other   |            | 4.958      |            |       |  0.39

Nlocal:            134 ave         141 max         129 min
Histogram: 2 0 3 2 1 1 0 1 1 1
Nghost:        4315.17 ave        4361 max        4265 min
Histogram: 1 1 2 1 0 0 3 2 1 1
Neighs:        49917.9 ave       53169 max       46905 min
Histogram: 3 2 0 0 0 1 2 1 2 1

Total # of neighbors = 599015
Ave neighs/atom = 372.52177
Ave special neighs/atom = 1.8656716
Neighbor list builds = 10094
Dangerous builds = 0
shell bash copy_files.sh dt_${tstep} 01.00Mstep
shell bash copy_files.sh dt_1 01.00Mstep

run ${Nrun1}
run 250000
PPPM initialization ...
  extracting TIP4P info from pair style
  using 12-bit tables for long-range coulomb (../kspace.cpp:342)
  G vector (1/distance) = 0.31041691
  grid = 24 24 24
  stencil order = 5
  estimated absolute RMS force accuracy = 0.003755669
  estimated relative force accuracy = 1.1310086e-05
  using double precision KISS FFT
  3d grid and FFT values/proc = 5415 1152
Generated 0 of 6 mixed pair_coeff terms from arithmetic mixing rule
Per MPI rank memory allocation (min/avg/max) = 14.4 | 14.41 | 14.41 Mbytes
   Step        Density          Temp          Press          TotEng    
   1000000   1.1145284      303.83858     -322.09231     -13900.056    
   1100000   1.1145284      310.02191      999.58387     -13886.112    
   1200000   1.1145284      291.04135      427.35793     -13831.944    
   1250000   1.1145284      295.00378     -343.04162     -13969.706    
Loop time of 1284.11 on 12 procs for 250000 steps with 1608 atoms

Performance: 16.821 ns/day, 1.427 hours/ns, 194.688 timesteps/s
93.4% CPU use with 12 MPI tasks x no OpenMP threads

MPI task timing breakdown:
Section |  min time  |  avg time  |  max time  |%varavg| %total
---------------------------------------------------------------
Pair    | 740.19     | 788.26     | 847.76     | 133.1 | 61.39
Bond    | 3.3159     | 3.4894     | 3.5788     |   3.3 |  0.27
Kspace  | 296.81     | 356.59     | 404.91     | 198.5 | 27.77
Neigh   | 21.334     | 21.344     | 21.353     |   0.1 |  1.66
Comm    | 35.569     | 35.875     | 36.337     |   3.6 |  2.79
Output  | 0.070807   | 0.071353   | 0.071607   |   0.1 |  0.01
Modify  | 73.373     | 73.502     | 73.639     |   1.0 |  5.72
Other   |            | 4.974      |            |       |  0.39

Nlocal:            134 ave         141 max         124 min
Histogram: 1 1 1 0 1 2 0 1 3 2
Nghost:         4335.5 ave        4383 max        4258 min
Histogram: 1 1 0 0 1 2 2 1 0 4
Neighs:        49927.8 ave       55812 max       43209 min
Histogram: 1 0 0 2 3 2 1 1 1 1

Total # of neighbors = 599134
Ave neighs/atom = 372.59577
Ave special neighs/atom = 1.8656716
Neighbor list builds = 10081
Dangerous builds = 0
shell bash copy_files.sh dt_${tstep} 01.25Mstep
shell bash copy_files.sh dt_1 01.25Mstep

run ${Nrun1}
run 250000
PPPM initialization ...
  extracting TIP4P info from pair style
  using 12-bit tables for long-range coulomb (../kspace.cpp:342)
  G vector (1/distance) = 0.31041691
  grid = 24 24 24
  stencil order = 5
  estimated absolute RMS force accuracy = 0.003755669
  estimated relative force accuracy = 1.1310086e-05
  using double precision KISS FFT
  3d grid and FFT values/proc = 5415 1152
Generated 0 of 6 mixed pair_coeff terms from arithmetic mixing rule
Per MPI rank memory allocation (min/avg/max) = 14.4 | 14.41 | 14.41 Mbytes
   Step        Density          Temp          Press          TotEng    
   1250000   1.1145284      295.00378     -343.02599     -13969.706    
   1300000   1.1145284      295.47232      929.03298     -13933.645    
   1400000   1.1145284      297.19261      168.35713     -13947.649    
   1500000   1.1145284      303.18748      497.74888     -13898.668    
Loop time of 1285.35 on 12 procs for 250000 steps with 1608 atoms

Performance: 16.805 ns/day, 1.428 hours/ns, 194.499 timesteps/s
93.3% CPU use with 12 MPI tasks x no OpenMP threads

MPI task timing breakdown:
Section |  min time  |  avg time  |  max time  |%varavg| %total
---------------------------------------------------------------
Pair    | 733.48     | 787.38     | 843.84     | 136.2 | 61.26
Bond    | 3.3522     | 3.4825     | 3.5376     |   2.5 |  0.27
Kspace  | 301.68     | 358.63     | 412.37     | 202.4 | 27.90
Neigh   | 21.467     | 21.477     | 21.491     |   0.1 |  1.67
Comm    | 35.547     | 35.83      | 36.305     |   3.4 |  2.79
Output  | 0.10673    | 0.10711    | 0.10735    |   0.0 |  0.01
Modify  | 73.359     | 73.491     | 73.62      |   1.0 |  5.72
Other   |            | 4.958      |            |       |  0.39

Nlocal:            134 ave         146 max         122 min
Histogram: 1 2 0 2 1 1 1 2 0 2
Nghost:        4289.58 ave        4341 max        4225 min
Histogram: 1 1 0 1 2 2 0 1 3 1
Neighs:        49967.9 ave       55316 max       45560 min
Histogram: 3 0 1 3 1 0 1 0 1 2

Total # of neighbors = 599615
Ave neighs/atom = 372.8949
Ave special neighs/atom = 1.8656716
Neighbor list builds = 10116
Dangerous builds = 0
shell bash copy_files.sh dt_${tstep} 01.50Mstep
shell bash copy_files.sh dt_1 01.50Mstep

run ${Nrun1}
run 250000
PPPM initialization ...
  extracting TIP4P info from pair style
  using 12-bit tables for long-range coulomb (../kspace.cpp:342)
  G vector (1/distance) = 0.31041691
  grid = 24 24 24
  stencil order = 5
  estimated absolute RMS force accuracy = 0.003755669
  estimated relative force accuracy = 1.1310086e-05
  using double precision KISS FFT
  3d grid and FFT values/proc = 5415 1152
Generated 0 of 6 mixed pair_coeff terms from arithmetic mixing rule
Per MPI rank memory allocation (min/avg/max) = 14.4 | 14.41 | 14.41 Mbytes
   Step        Density          Temp          Press          TotEng    
   1500000   1.1145284      303.18748      497.7196      -13898.668    
   1600000   1.1145284      294.72421     -139.899       -13945.483    
   1700000   1.1145284      287.73373      50.947282     -13999.948    
   1750000   1.1145284      302.1908       870.00903     -13921.795    
Loop time of 1278.99 on 12 procs for 250000 steps with 1608 atoms

Performance: 16.888 ns/day, 1.421 hours/ns, 195.466 timesteps/s
93.6% CPU use with 12 MPI tasks x no OpenMP threads

MPI task timing breakdown:
Section |  min time  |  avg time  |  max time  |%varavg| %total
---------------------------------------------------------------
Pair    | 739.17     | 787.81     | 835.89     | 122.8 | 61.60
Bond    | 3.3781     | 3.4974     | 3.5493     |   2.4 |  0.27
Kspace  | 303.77     | 351.82     | 400.66     | 184.2 | 27.51
Neigh   | 21.378     | 21.391     | 21.405     |   0.1 |  1.67
Comm    | 35.654     | 35.911     | 36.345     |   3.5 |  2.81
Output  | 0.071413   | 0.071674   | 0.071912   |   0.1 |  0.01
Modify  | 73.373     | 73.509     | 73.676     |   1.0 |  5.75
Other   |            | 4.984      |            |       |  0.39

Nlocal:            134 ave         143 max         123 min
Histogram: 1 2 1 2 0 0 0 1 2 3
Nghost:        4295.33 ave        4350 max        4239 min
Histogram: 1 0 1 3 1 2 1 1 1 1
Neighs:        49926.8 ave       57216 max       43668 min
Histogram: 1 2 1 2 2 0 0 2 0 2

Total # of neighbors = 599122
Ave neighs/atom = 372.58831
Ave special neighs/atom = 1.8656716
Neighbor list builds = 10126
Dangerous builds = 0
shell bash copy_files.sh dt_${tstep} 01.75Mstep
shell bash copy_files.sh dt_1 01.75Mstep

run ${Nrun1}
run 250000
PPPM initialization ...
  extracting TIP4P info from pair style
  using 12-bit tables for long-range coulomb (../kspace.cpp:342)
  G vector (1/distance) = 0.31041691
  grid = 24 24 24
  stencil order = 5
  estimated absolute RMS force accuracy = 0.003755669
  estimated relative force accuracy = 1.1310086e-05
  using double precision KISS FFT
  3d grid and FFT values/proc = 5415 1152
Generated 0 of 6 mixed pair_coeff terms from arithmetic mixing rule
Per MPI rank memory allocation (min/avg/max) = 14.4 | 14.41 | 14.41 Mbytes
   Step        Density          Temp          Press          TotEng    
   1750000   1.1145284      302.1908       870.11793     -13921.795    
   1800000   1.1145284      294.48568     -390.8849      -13904.918    
   1900000   1.1145284      286.45973     -919.594       -14036.439    
   2000000   1.1145284      299.17857      200.3083      -13937.058    
Loop time of 1269 on 12 procs for 250000 steps with 1608 atoms

Performance: 17.021 ns/day, 1.410 hours/ns, 197.006 timesteps/s
93.9% CPU use with 12 MPI tasks x no OpenMP threads

MPI task timing breakdown:
Section |  min time  |  avg time  |  max time  |%varavg| %total
---------------------------------------------------------------
Pair    | 738.12     | 785.4      | 826.22     | 106.8 | 61.89
Bond    | 3.3611     | 3.5161     | 3.5738     |   2.9 |  0.28
Kspace  | 303.32     | 344.44     | 391.93     | 161.9 | 27.14
Neigh   | 21.248     | 21.255     | 21.271     |   0.1 |  1.67
Comm    | 35.556     | 35.849     | 36.246     |   3.3 |  2.82
Output  | 0.10666    | 0.10687    | 0.10719    |   0.1 |  0.01
Modify  | 73.322     | 73.461     | 73.658     |   1.1 |  5.79
Other   |            | 4.974      |            |       |  0.39

Nlocal:            134 ave         145 max         120 min
Histogram: 1 1 0 1 2 0 2 3 1 1
Nghost:           4281 ave        4365 max        4206 min
Histogram: 1 2 1 1 0 3 2 0 1 1
Neighs:        49949.8 ave       57762 max       44583 min
Histogram: 1 3 0 2 3 1 0 0 1 1

Total # of neighbors = 599398
Ave neighs/atom = 372.75995
Ave special neighs/atom = 1.8656716
Neighbor list builds = 10068
Dangerous builds = 0
shell bash copy_files.sh dt_${tstep} 02.00step
shell bash copy_files.sh dt_1 02.00step

run ${Nrun2}
run 1000000
PPPM initialization ...
  extracting TIP4P info from pair style
  using 12-bit tables for long-range coulomb (../kspace.cpp:342)
  G vector (1/distance) = 0.31041691
  grid = 24 24 24
  stencil order = 5
  estimated absolute RMS force accuracy = 0.003755669
  estimated relative force accuracy = 1.1310086e-05
  using double precision KISS FFT
  3d grid and FFT values/proc = 5415 1152
Generated 0 of 6 mixed pair_coeff terms from arithmetic mixing rule
Per MPI rank memory allocation (min/avg/max) = 14.4 | 14.41 | 14.41 Mbytes
   Step        Density          Temp          Press          TotEng    
   2000000   1.1145284      299.17857      200.40824     -13937.058    
   2100000   1.1145284      291.90989      1850.7984     -13877.98     
   2200000   1.1145284      286.72579      36.845607     -13986.697    
   2300000   1.1145284      304.03345     -733.9819      -13923.482    
   2400000   1.1145284      300.5061      -60.318582     -13947.869    
   2500000   1.1145284      292.04174     -286.79193     -13921.5      
   2600000   1.1145284      314.12297     -670.29079     -13888.68     
   2700000   1.1145284      296.54296     -469.35189     -13879.66     
   2800000   1.1145284      288.59418      1346.6469     -13955.616    
   2900000   1.1145284      292.25007     -655.38175     -13978.753    
   3000000   1.1145284      308.47825     -1161.0131     -13879.231    
Loop time of 5148.45 on 12 procs for 1000000 steps with 1608 atoms

Performance: 16.782 ns/day, 1.430 hours/ns, 194.233 timesteps/s
93.4% CPU use with 12 MPI tasks x no OpenMP threads

MPI task timing breakdown:
Section |  min time  |  avg time  |  max time  |%varavg| %total
---------------------------------------------------------------
Pair    | 2901.8     | 3161       | 3391.1     | 267.9 | 61.40
Bond    | 13.392     | 13.946     | 14.178     |   5.5 |  0.27
Kspace  | 1199.8     | 1431       | 1689.6     | 399.1 | 27.79
Neigh   | 85.21      | 85.248     | 85.302     |   0.2 |  1.66
Comm    | 142.46     | 143.39     | 145.1      |   6.4 |  2.79
Output  | 0.3556     | 0.35643    | 0.35738    |   0.1 |  0.01
Modify  | 293.25     | 293.74     | 294.38     |   1.9 |  5.71
Other   |            | 19.78      |            |       |  0.38

Nlocal:            134 ave         147 max         127 min
Histogram: 3 2 1 0 2 1 2 0 0 1
Nghost:        4300.75 ave        4365 max        4256 min
Histogram: 2 1 1 3 1 2 0 0 1 1
Neighs:        49942.1 ave       55140 max       45923 min
Histogram: 1 2 2 1 1 1 2 1 0 1

Total # of neighbors = 599305
Ave neighs/atom = 372.70211
Ave special neighs/atom = 1.8656716
Neighbor list builds = 40296
Dangerous builds = 0
shell bash copy_files.sh dt_${tstep} 03.00Mstep
shell bash copy_files.sh dt_1 03.00Mstep

run ${Nrun2}
run 1000000
PPPM initialization ...
  extracting TIP4P info from pair style
  using 12-bit tables for long-range coulomb (../kspace.cpp:342)
  G vector (1/distance) = 0.31041691
  grid = 24 24 24
  stencil order = 5
  estimated absolute RMS force accuracy = 0.003755669
  estimated relative force accuracy = 1.1310086e-05
  using double precision KISS FFT
  3d grid and FFT values/proc = 5415 1152
Generated 0 of 6 mixed pair_coeff terms from arithmetic mixing rule
Per MPI rank memory allocation (min/avg/max) = 14.4 | 14.41 | 14.41 Mbytes
   Step        Density          Temp          Press          TotEng    
   3000000   1.1145284      308.47825     -1160.4981     -13879.231    
   3100000   1.1145284      293.43937      619.89636     -13932.026    
   3200000   1.1145284      305.52919     -57.209946     -13845.012    
   3300000   1.1145284      298.83175      198.13113     -13944.333    
   3400000   1.1145284      309.51353     -444.10277     -13828.192    
   3500000   1.1145284      290.36298      883.12085     -13952.053    
   3600000   1.1145284      289.87773     -480.82096     -13936.953    
   3700000   1.1145284      289.22615     -45.211068     -13940.419    
   3800000   1.1145284      307.46464      100.27568     -13858.094    
   3900000   1.1145284      305.64839     -460.10786     -13897.027    
   4000000   1.1145284      284.14802      165.08068     -13988.412    
Loop time of 5131.8 on 12 procs for 1000000 steps with 1608 atoms

Performance: 16.836 ns/day, 1.426 hours/ns, 194.863 timesteps/s
93.5% CPU use with 12 MPI tasks x no OpenMP threads

MPI task timing breakdown:
Section |  min time  |  avg time  |  max time  |%varavg| %total
---------------------------------------------------------------
Pair    | 2919.8     | 3155.8     | 3368.7     | 272.5 | 61.49
Bond    | 13.29      | 13.925     | 14.199     |   5.9 |  0.27
Kspace  | 1205.2     | 1419.4     | 1656.4     | 407.8 | 27.66
Neigh   | 85.209     | 85.249     | 85.32      |   0.3 |  1.66
Comm    | 142.48     | 143.47     | 145.33     |   6.9 |  2.80
Output  | 0.35472    | 0.35571    | 0.35656    |   0.1 |  0.01
Modify  | 293.38     | 293.78     | 294.34     |   1.8 |  5.72
Other   |            | 19.87      |            |       |  0.39

Nlocal:            134 ave         144 max         127 min
Histogram: 1 1 4 0 2 2 1 0 0 1
Nghost:        4308.33 ave        4363 max        4262 min
Histogram: 2 1 3 0 0 1 2 0 2 1
Neighs:        49962.3 ave       54547 max       44979 min
Histogram: 1 1 2 1 1 1 2 0 0 3

Total # of neighbors = 599548
Ave neighs/atom = 372.85323
Ave special neighs/atom = 1.8656716
Neighbor list builds = 40299
Dangerous builds = 0
shell bash copy_files.sh dt_${tstep} 04.00Mstep
shell bash copy_files.sh dt_1 04.00Mstep

run ${Nrun2}
run 1000000
PPPM initialization ...
  extracting TIP4P info from pair style
  using 12-bit tables for long-range coulomb (../kspace.cpp:342)
  G vector (1/distance) = 0.31041691
  grid = 24 24 24
  stencil order = 5
  estimated absolute RMS force accuracy = 0.003755669
  estimated relative force accuracy = 1.1310086e-05
  using double precision KISS FFT
  3d grid and FFT values/proc = 5415 1152
Generated 0 of 6 mixed pair_coeff terms from arithmetic mixing rule
Per MPI rank memory allocation (min/avg/max) = 14.4 | 14.41 | 14.41 Mbytes
   Step        Density          Temp          Press          TotEng    
   4000000   1.1145284      284.14802      165.19497     -13988.412    
   4100000   1.1145284      300.35548     -307.08776     -13967.989    
   4200000   1.1145284      302.79434     -969.50423     -13923.611    
   4300000   1.1145284      309.5477      -352.47125     -13906.779    
   4400000   1.1145284      296.06901     -722.20587     -13968.146    
   4500000   1.1145284      289.62883      317.07135     -13997.994    
   4600000   1.1145284      297.60206     -673.71417     -13963.922    
   4700000   1.1145284      304.30351      250.26817     -13823.178    
   4800000   1.1145284      310.79993      160.78771     -13927.56     
   4900000   1.1145284      299.32351      880.46596     -13938.259    
   5000000   1.1145284      307.61363     -119.70665     -13855.05     
Loop time of 5124.66 on 12 procs for 1000000 steps with 1608 atoms

Performance: 16.860 ns/day, 1.424 hours/ns, 195.135 timesteps/s
93.5% CPU use with 12 MPI tasks x no OpenMP threads

MPI task timing breakdown:
Section |  min time  |  avg time  |  max time  |%varavg| %total
---------------------------------------------------------------
Pair    | 2916.8     | 3153.2     | 3304.1     | 267.0 | 61.53
Bond    | 13.36      | 13.929     | 14.189     |   5.7 |  0.27
Kspace  | 1262.7     | 1414.7     | 1652.1     | 399.8 | 27.61
Neigh   | 85.135     | 85.172     | 85.243     |   0.3 |  1.66
Comm    | 142.71     | 143.54     | 145.34     |   6.7 |  2.80
Output  | 0.35385    | 0.35521    | 0.3566     |   0.1 |  0.01
Modify  | 293.36     | 293.94     | 294.5      |   1.7 |  5.74
Other   |            | 19.81      |            |       |  0.39

Nlocal:            134 ave         145 max         125 min
Histogram: 1 0 1 2 4 2 0 0 1 1
Nghost:        4307.08 ave        4366 max        4239 min
Histogram: 1 0 3 0 1 2 1 0 3 1
Neighs:        49959.2 ave       55008 max       45130 min
Histogram: 2 2 0 1 1 2 0 0 2 2

Total # of neighbors = 599511
Ave neighs/atom = 372.83022
Ave special neighs/atom = 1.8656716
Neighbor list builds = 40332
Dangerous builds = 0
shell bash copy_files.sh dt_${tstep} 05.00Mstep
shell bash copy_files.sh dt_1 05.00Mstep

run ${Nrun2}
run 1000000
PPPM initialization ...
  extracting TIP4P info from pair style
  using 12-bit tables for long-range coulomb (../kspace.cpp:342)
  G vector (1/distance) = 0.31041691
  grid = 24 24 24
  stencil order = 5
  estimated absolute RMS force accuracy = 0.003755669
  estimated relative force accuracy = 1.1310086e-05
  using double precision KISS FFT
  3d grid and FFT values/proc = 5415 1152
Generated 0 of 6 mixed pair_coeff terms from arithmetic mixing rule
Per MPI rank memory allocation (min/avg/max) = 14.4 | 14.41 | 14.41 Mbytes
   Step        Density          Temp          Press          TotEng    
   5000000   1.1145284      307.61363     -119.89505     -13855.05     
   5100000   1.1145284      289.74314      123.13999     -13872.215    
   5200000   1.1145284      296.80303     -766.71533     -13934.171    
   5300000   1.1145284      317.60867      810.24598     -13862.834    
   5400000   1.1145284      297.54329     -604.74009     -13905.374    
   5500000   1.1145284      295.47675     -365.27041     -13884.624    
   5600000   1.1145284      299.697        278.00506     -13946.723    
   5700000   1.1145284      292.28605      113.40019     -13932.583    
   5800000   1.1145284      302.61236     -52.117745     -13906.395    
   5900000   1.1145284      294.98506      33.211678     -13864.711    
   6000000   1.1145284      299.86127      894.68496     -13908.111    
Loop time of 5125.31 on 12 procs for 1000000 steps with 1608 atoms

Performance: 16.858 ns/day, 1.424 hours/ns, 195.110 timesteps/s
93.4% CPU use with 12 MPI tasks x no OpenMP threads

MPI task timing breakdown:
Section |  min time  |  avg time  |  max time  |%varavg| %total
---------------------------------------------------------------
Pair    | 2915.6     | 3148.2     | 3339       | 268.9 | 61.42
Bond    | 13.276     | 13.896     | 14.185     |   5.9 |  0.27
Kspace  | 1229.9     | 1420       | 1653.6     | 401.6 | 27.71
Neigh   | 85.438     | 85.493     | 85.571     |   0.4 |  1.67
Comm    | 142.37     | 143.55     | 145.34     |   6.9 |  2.80
Output  | 0.3558     | 0.35628    | 0.35685    |   0.1 |  0.01
Modify  | 293.6      | 294        | 294.6      |   1.8 |  5.74
Other   |            | 19.83      |            |       |  0.39

Nlocal:            134 ave         149 max         120 min
Histogram: 2 0 0 2 3 2 0 1 1 1
Nghost:           4297 ave        4347 max        4244 min
Histogram: 2 0 1 1 2 1 2 1 0 2
Neighs:        49949.1 ave       57123 max       45299 min
Histogram: 3 1 1 1 2 2 0 0 1 1

Total # of neighbors = 599389
Ave neighs/atom = 372.75435
Ave special neighs/atom = 1.8656716
Neighbor list builds = 40418
Dangerous builds = 0
shell bash copy_files.sh dt_${tstep} 06.00Mstep
shell bash copy_files.sh dt_1 06.00Mstep

run ${Nrun2}
run 1000000
PPPM initialization ...
  extracting TIP4P info from pair style
  using 12-bit tables for long-range coulomb (../kspace.cpp:342)
  G vector (1/distance) = 0.31041691
  grid = 24 24 24
  stencil order = 5
  estimated absolute RMS force accuracy = 0.003755669
  estimated relative force accuracy = 1.1310086e-05
  using double precision KISS FFT
  3d grid and FFT values/proc = 5415 1152
Generated 0 of 6 mixed pair_coeff terms from arithmetic mixing rule
Per MPI rank memory allocation (min/avg/max) = 14.4 | 14.41 | 14.41 Mbytes
   Step        Density          Temp          Press          TotEng    
   6000000   1.1145284      299.86127      894.75485     -13908.111    
   6100000   1.1145284      292.45366     -19.043207     -14013.706    
   6200000   1.1145284      282.34225      680.82386     -13995.487    
   6300000   1.1145284      300.52261      468.26014     -13866.508    
   6400000   1.1145284      283.56748      756.63567     -14023.71     
   6500000   1.1145284      295.08655     -125.61656     -13851.143    
   6600000   1.1145284      288.98417      478.31361     -13995.434    
   6700000   1.1145284      305.42999      805.69407     -13855.303    
   6800000   1.1145284      290.75313     -990.08093     -13908.131    
   6900000   1.1145284      283.27852      350.91309     -13978.881    
   7000000   1.1145284      301.96092     -96.402292     -13941.602    
Loop time of 5150.32 on 12 procs for 1000000 steps with 1608 atoms

Performance: 16.776 ns/day, 1.431 hours/ns, 194.163 timesteps/s
93.3% CPU use with 12 MPI tasks x no OpenMP threads

MPI task timing breakdown:
Section |  min time  |  avg time  |  max time  |%varavg| %total
---------------------------------------------------------------
Pair    | 2916.7     | 3160.2     | 3371.9     | 267.9 | 61.36
Bond    | 13.288     | 13.886     | 14.232     |   5.9 |  0.27
Kspace  | 1220.5     | 1433.3     | 1676.1     | 398.9 | 27.83
Neigh   | 85.437     | 85.478     | 85.531     |   0.3 |  1.66
Comm    | 142.41     | 143.47     | 145.32     |   6.9 |  2.79
Output  | 0.35494    | 0.35596    | 0.35782    |   0.1 |  0.01
Modify  | 293.24     | 293.86     | 294.45     |   2.1 |  5.71
Other   |            | 19.76      |            |       |  0.38

Nlocal:            134 ave         148 max         127 min
Histogram: 2 2 2 4 0 0 1 0 0 1
Nghost:        4289.92 ave        4352 max        4244 min
Histogram: 3 0 2 1 1 1 1 1 1 1
Neighs:          49984 ave       55580 max       44443 min
Histogram: 1 0 0 1 6 1 0 2 0 1

Total # of neighbors = 599808
Ave neighs/atom = 373.01493
Ave special neighs/atom = 1.8656716
Neighbor list builds = 40366
Dangerous builds = 0
shell bash copy_files.sh dt_${tstep} 07.00Mstep
shell bash copy_files.sh dt_1 07.00Mstep

run ${Nrun2}
run 1000000
PPPM initialization ...
  extracting TIP4P info from pair style
  using 12-bit tables for long-range coulomb (../kspace.cpp:342)
  G vector (1/distance) = 0.31041691
  grid = 24 24 24
  stencil order = 5
  estimated absolute RMS force accuracy = 0.003755669
  estimated relative force accuracy = 1.1310086e-05
  using double precision KISS FFT
  3d grid and FFT values/proc = 5415 1152
Generated 0 of 6 mixed pair_coeff terms from arithmetic mixing rule
Per MPI rank memory allocation (min/avg/max) = 14.4 | 14.41 | 14.41 Mbytes
   Step        Density          Temp          Press          TotEng    
   7000000   1.1145284      301.96092     -96.393008     -13941.602    
   7100000   1.1145284      301.90531     -21.136023     -13965.694    
   7200000   1.1145284      309.6666      -143.48092     -13951.906    
   7300000   1.1145284      303.7286      -343.75115     -13876.392    
   7400000   1.1145284      300.6674      -297.8686      -13928.025    
   7500000   1.1145284      297.92031     -245.48305     -13946.442    
   7600000   1.1145284      313.06566      1296.3468     -13869.749    
   7700000   1.1145284      298.92609      580.20125     -13927.072    
   7800000   1.1145284      299.0074       267.71995     -13858.338    
   7900000   1.1145284      293.08926      64.759123     -13985.433    
   8000000   1.1145284      298.06678      574.13171     -13897.996    
Loop time of 5130.24 on 12 procs for 1000000 steps with 1608 atoms

Performance: 16.841 ns/day, 1.425 hours/ns, 194.923 timesteps/s
93.5% CPU use with 12 MPI tasks x no OpenMP threads

MPI task timing breakdown:
Section |  min time  |  avg time  |  max time  |%varavg| %total
---------------------------------------------------------------
Pair    | 2911.5     | 3154.9     | 3336.6     | 269.0 | 61.50
Bond    | 13.277     | 13.866     | 14.097     |   5.5 |  0.27
Kspace  | 1235.6     | 1418.6     | 1662.7     | 402.2 | 27.65
Neigh   | 85.391     | 85.447     | 85.513     |   0.3 |  1.67
Comm    | 142.48     | 143.52     | 145.51     |   7.2 |  2.80
Output  | 0.3542     | 0.35499    | 0.35585    |   0.1 |  0.01
Modify  | 293.27     | 293.76     | 294.33     |   1.9 |  5.73
Other   |            | 19.82      |            |       |  0.39

Nlocal:            134 ave         145 max         125 min
Histogram: 2 2 0 0 2 3 0 1 0 2
Nghost:        4319.92 ave        4400 max        4249 min
Histogram: 2 2 2 0 1 0 0 2 1 2
Neighs:        49965.8 ave       57102 max       44563 min
Histogram: 2 1 1 2 2 0 2 0 1 1

Total # of neighbors = 599590
Ave neighs/atom = 372.87935
Ave special neighs/atom = 1.8656716
Neighbor list builds = 40331
Dangerous builds = 0
shell bash copy_files.sh dt_${tstep} 08.00Mstep
shell bash copy_files.sh dt_1 08.00Mstep

run ${Nrun2}
run 1000000
PPPM initialization ...
  extracting TIP4P info from pair style
  using 12-bit tables for long-range coulomb (../kspace.cpp:342)
  G vector (1/distance) = 0.31041691
  grid = 24 24 24
  stencil order = 5
  estimated absolute RMS force accuracy = 0.003755669
  estimated relative force accuracy = 1.1310086e-05
  using double precision KISS FFT
  3d grid and FFT values/proc = 5415 1152
Generated 0 of 6 mixed pair_coeff terms from arithmetic mixing rule
Per MPI rank memory allocation (min/avg/max) = 14.4 | 14.41 | 14.41 Mbytes
   Step        Density          Temp          Press          TotEng    
   8000000   1.1145284      298.06678      574.16158     -13897.996    
   8100000   1.1145284      302.71532     -172.23761     -13867.033    
   8200000   1.1145284      295.59863      232.87655     -13897.506    
   8300000   1.1145284      296.06976     -532.16263     -13930.123    
   8400000   1.1145284      309.33137      1567.0994     -13873.37     
   8500000   1.1145284      300.10965      512.72946     -13902.354    
   8600000   1.1145284      302.93181     -926.45517     -13952.269    
   8700000   1.1145284      310.47509      455.24398     -13798.123    
   8800000   1.1145284      305.4876       539.24041     -13850.555    
   8900000   1.1145284      295.94083      264.20451     -13923.097    
   9000000   1.1145284      305.51045      250.25081     -13861.321    
Loop time of 5137.21 on 12 procs for 1000000 steps with 1608 atoms

Performance: 16.818 ns/day, 1.427 hours/ns, 194.658 timesteps/s
93.3% CPU use with 12 MPI tasks x no OpenMP threads

MPI task timing breakdown:
Section |  min time  |  avg time  |  max time  |%varavg| %total
---------------------------------------------------------------
Pair    | 2910.5     | 3149.4     | 3353.3     | 274.7 | 61.31
Bond    | 13.305     | 13.897     | 14.165     |   5.7 |  0.27
Kspace  | 1227.7     | 1430.8     | 1670.6     | 408.5 | 27.85
Neigh   | 85.481     | 85.527     | 85.577     |   0.3 |  1.66
Comm    | 142.32     | 143.44     | 145.38     |   7.1 |  2.79
Output  | 0.3548     | 0.35546    | 0.35637    |   0.1 |  0.01
Modify  | 293.55     | 293.94     | 294.51     |   1.9 |  5.72
Other   |            | 19.85      |            |       |  0.39

Nlocal:            134 ave         142 max         124 min
Histogram: 2 0 1 0 1 0 4 1 2 1
Nghost:        4283.58 ave        4326 max        4214 min
Histogram: 1 0 0 0 1 3 2 2 2 1
Neighs:        49936.6 ave       52574 max       45833 min
Histogram: 1 1 0 1 0 3 0 2 2 2

Total # of neighbors = 599239
Ave neighs/atom = 372.66107
Ave special neighs/atom = 1.8656716
Neighbor list builds = 40378
Dangerous builds = 0
shell bash copy_files.sh dt_${tstep} 09.00Mstep
shell bash copy_files.sh dt_1 09.00Mstep

run ${Nrun2}
run 1000000
PPPM initialization ...
  extracting TIP4P info from pair style
  using 12-bit tables for long-range coulomb (../kspace.cpp:342)
  G vector (1/distance) = 0.31041691
  grid = 24 24 24
  stencil order = 5
  estimated absolute RMS force accuracy = 0.003755669
  estimated relative force accuracy = 1.1310086e-05
  using double precision KISS FFT
  3d grid and FFT values/proc = 5415 1152
Generated 0 of 6 mixed pair_coeff terms from arithmetic mixing rule
Per MPI rank memory allocation (min/avg/max) = 14.4 | 14.41 | 14.41 Mbytes
   Step        Density          Temp          Press          TotEng    
   9000000   1.1145284      305.51045      250.4095      -13861.321    
   9100000   1.1145284      297.78393     -87.301885     -13921.29     
   9200000   1.1145284      305.75737     -1433.6689     -13926.319    
   9300000   1.1145284      301.69604     -806.4748      -13944.805    
   9400000   1.1145284      290.07437     -58.192782     -13988.099    
   9500000   1.1145284      311.27428      450.34626     -13815.758    
   9600000   1.1145284      289.40194     -663.0402      -14018.411    
   9700000   1.1145284      294.37738     -955.33806     -13976.793    
   9800000   1.1145284      303.37032     -326.11753     -13925.901    
   9900000   1.1145284      304.75081     -200.37607     -13839.32     
  10000000   1.1145284      306.64216     -204.71174     -13888.113    
Loop time of 5147.18 on 12 procs for 1000000 steps with 1608 atoms

Performance: 16.786 ns/day, 1.430 hours/ns, 194.281 timesteps/s
93.2% CPU use with 12 MPI tasks x no OpenMP threads

MPI task timing breakdown:
Section |  min time  |  avg time  |  max time  |%varavg| %total
---------------------------------------------------------------
Pair    | 2917.3     | 3150.1     | 3366.5     | 291.7 | 61.20
Bond    | 13.282     | 13.853     | 14.084     |   5.4 |  0.27
Kspace  | 1221.9     | 1440.3     | 1673       | 432.7 | 27.98
Neigh   | 85.533     | 85.576     | 85.642     |   0.3 |  1.66
Comm    | 142.23     | 143.41     | 145.52     |   7.3 |  2.79
Output  | 0.35565    | 0.35638    | 0.35763    |   0.1 |  0.01
Modify  | 293.37     | 293.85     | 294.39     |   1.9 |  5.71
Other   |            | 19.78      |            |       |  0.38

Nlocal:            134 ave         145 max         121 min
Histogram: 1 1 1 0 2 2 1 2 0 2
Nghost:        4314.58 ave        4370 max        4267 min
Histogram: 1 2 0 2 1 3 1 1 0 1
Neighs:        49925.9 ave       57466 max       43553 min
Histogram: 1 1 2 0 4 1 0 2 0 1

Total # of neighbors = 599111
Ave neighs/atom = 372.58147
Ave special neighs/atom = 1.8656716
Neighbor list builds = 40385
Dangerous builds = 0
shell bash copy_files.sh dt_${tstep} 10.00Mstep
shell bash copy_files.sh dt_1 10.00Mstep

run ${Nrun3}
run 2500000
PPPM initialization ...
  extracting TIP4P info from pair style
  using 12-bit tables for long-range coulomb (../kspace.cpp:342)
  G vector (1/distance) = 0.31041691
  grid = 24 24 24
  stencil order = 5
  estimated absolute RMS force accuracy = 0.003755669
  estimated relative force accuracy = 1.1310086e-05
  using double precision KISS FFT
  3d grid and FFT values/proc = 5415 1152
Generated 0 of 6 mixed pair_coeff terms from arithmetic mixing rule
Per MPI rank memory allocation (min/avg/max) = 14.4 | 14.41 | 14.41 Mbytes
   Step        Density          Temp          Press          TotEng    
  10000000   1.1145284      306.64216     -204.73787     -13888.113    
  10100000   1.1145284      308.05301      413.83519     -13902.701    
  10200000   1.1145284      292.87042      325.42942     -13886.718    
  10300000   1.1145284      284.25776      171.61556     -13983.847    
  10400000   1.1145284      302.80689      1082.5839     -13884.608    
  10500000   1.1145284      282.52571      68.372741     -13967.964    
  10600000   1.1145284      299.17884     -439.48606     -13914.411    
  10700000   1.1145284      292.26854     -115.44218     -13933.368    
  10800000   1.1145284      292.9076      -191.2306      -13899.033    
  10900000   1.1145284      294.62146      476.39917     -13980.173    
  11000000   1.1145284      305.10862     -121.83283     -13867.253    
  11100000   1.1145284      298.42519     -523.71841     -13930.665    
  11200000   1.1145284      309.75629      1044.1962     -13816.999    
  11300000   1.1145284      310.45828     -559.17712     -13896.519    
  11400000   1.1145284      314.83417      399.17379     -13818.135    
  11500000   1.1145284      293.04863     -1003.4368     -13961.067    
  11600000   1.1145284      296.32526     -421.91223     -13923.937    
  11700000   1.1145284      293.00356     -566.16173     -13962.266    
  11800000   1.1145284      295.13428      1056.2897     -13961.56     
  11900000   1.1145284      292.67039      556.42482     -13922.038    
  12000000   1.1145284      293.0743      -262.09803     -13936.43     
  12100000   1.1145284      299.54455     -653.81325     -13894.43     
  12200000   1.1145284      292.72099     -1031.5439     -13896.213    
  12300000   1.1145284      306.10992     -830.7352      -13891.764    
  12400000   1.1145284      294.68311      669.1534      -13964.586    
  12500000   1.1145284      290.67478     -326.53592     -13983.447    
Loop time of 12838.8 on 12 procs for 2500000 steps with 1608 atoms

Performance: 16.824 ns/day, 1.427 hours/ns, 194.722 timesteps/s
93.4% CPU use with 12 MPI tasks x no OpenMP threads

MPI task timing breakdown:
Section |  min time  |  avg time  |  max time  |%varavg| %total
---------------------------------------------------------------
Pair    | 7283.3     | 7878.3     | 8401.4     | 420.4 | 61.36
Bond    | 33.254     | 34.798     | 35.392     |   8.9 |  0.27
Kspace  | 3042.5     | 3568.8     | 4165.8     | 626.5 | 27.80
Neigh   | 213.15     | 213.26     | 213.42     |   0.5 |  1.66
Comm    | 355.88     | 358.31     | 363.14     |  11.1 |  2.79
Output  | 0.88789    | 0.8905     | 0.89253    |   0.1 |  0.01
Modify  | 733.82     | 734.93     | 736.32     |   2.8 |  5.72
Other   |            | 49.53      |            |       |  0.39

Nlocal:            134 ave         146 max         126 min
Histogram: 2 0 0 6 1 1 0 0 1 1
Nghost:        4307.67 ave        4339 max        4278 min
Histogram: 1 1 2 2 2 0 0 1 1 2
Neighs:        49947.8 ave       57287 max       47064 min
Histogram: 3 4 1 1 0 1 0 1 0 1

Total # of neighbors = 599374
Ave neighs/atom = 372.74502
Ave special neighs/atom = 1.8656716
Neighbor list builds = 100763
Dangerous builds = 0
shell bash copy_files.sh dt_${tstep} 12.50Mstep
shell bash copy_files.sh dt_1 12.50Mstep

run ${Nrun3}
run 2500000
PPPM initialization ...
  extracting TIP4P info from pair style
  using 12-bit tables for long-range coulomb (../kspace.cpp:342)
  G vector (1/distance) = 0.31041691
  grid = 24 24 24
  stencil order = 5
  estimated absolute RMS force accuracy = 0.003755669
  estimated relative force accuracy = 1.1310086e-05
  using double precision KISS FFT
  3d grid and FFT values/proc = 5415 1152
Generated 0 of 6 mixed pair_coeff terms from arithmetic mixing rule
Per MPI rank memory allocation (min/avg/max) = 14.4 | 14.41 | 14.41 Mbytes
   Step        Density          Temp          Press          TotEng    
  12500000   1.1145284      290.67478     -326.81687     -13983.447    
  12600000   1.1145284      310.58495     -997.55513     -13916.516    
  12700000   1.1145284      301.22179     -290.17641     -13923.403    
  12800000   1.1145284      301.04086     -175.88387     -13920.055    
  12900000   1.1145284      295.05039      234.22201     -13903.889    
  13000000   1.1145284      296.23393     -317.44741     -13950.442    
  13100000   1.1145284      298.81527     -552.90343     -13915.179    
  13200000   1.1145284      281.64334     -234.09195     -14007.356    
  13300000   1.1145284      307.95016     -437.49866     -13864.426    
  13400000   1.1145284      289.93656     -949.12769     -14008.134    
  13500000   1.1145284      300.67231      440.63393     -13916.868    
  13600000   1.1145284      297.86752     -227.28193     -13905.354    
  13700000   1.1145284      289.11118     -1330.1996     -13916.749    
  13800000   1.1145284      293.60738      73.02948      -13869.19     
  13900000   1.1145284      301.46169     -166.05842     -13885.893    
  14000000   1.1145284      286.65223      1469.7521     -13893.302    
  14100000   1.1145284      295.81812      724.61641     -13940.562    
  14200000   1.1145284      306.1041       349.79684     -13907.176    
  14300000   1.1145284      315.93672     -346.13411     -13911.869    
  14400000   1.1145284      297.85095     -154.96134     -13975.969    
  14500000   1.1145284      294.28791      1184.1949     -13883.315    
  14600000   1.1145284      294.15061      718.86252     -13931.059    
  14700000   1.1145284      291.53197      421.94749     -13979.723    
  14800000   1.1145284      302.6663      -1138.2656     -13985.355    
  14900000   1.1145284      293.71275      1520.8187     -13940.53     
  15000000   1.1145284      300.40734     -159.006       -13897.31     
Loop time of 12844.8 on 12 procs for 2500000 steps with 1608 atoms

Performance: 16.816 ns/day, 1.427 hours/ns, 194.632 timesteps/s
93.4% CPU use with 12 MPI tasks x no OpenMP threads

MPI task timing breakdown:
Section |  min time  |  avg time  |  max time  |%varavg| %total
---------------------------------------------------------------
Pair    | 7293.6     | 7898.3     | 8390       | 413.2 | 61.49
Bond    | 33.146     | 34.805     | 35.576     |   9.6 |  0.27
Kspace  | 3064.1     | 3553.8     | 4156.9     | 617.4 | 27.67
Neigh   | 213.45     | 213.56     | 213.71     |   0.4 |  1.66
Comm    | 355.83     | 358.53     | 363.16     |  10.7 |  2.79
Output  | 0.88805    | 0.88989    | 0.8925     |   0.1 |  0.01
Modify  | 734.01     | 735.1      | 736.72     |   3.0 |  5.72
Other   |            | 49.72      |            |       |  0.39

Nlocal:            134 ave         151 max         126 min
Histogram: 2 3 2 0 3 1 0 0 0 1
Nghost:        4304.42 ave        4378 max        4265 min
Histogram: 3 0 3 2 1 1 1 0 0 1
Neighs:          49966 ave       59446 max       45035 min
Histogram: 2 4 2 0 1 0 1 1 0 1

Total # of neighbors = 599592
Ave neighs/atom = 372.8806
Ave special neighs/atom = 1.8656716
Neighbor list builds = 100937
Dangerous builds = 0
shell bash copy_files.sh dt_${tstep} 15.00Mstep
shell bash copy_files.sh dt_1 15.00Mstep

run ${Nrun3}
run 2500000
PPPM initialization ...
  extracting TIP4P info from pair style
  using 12-bit tables for long-range coulomb (../kspace.cpp:342)
  G vector (1/distance) = 0.31041691
  grid = 24 24 24
  stencil order = 5
  estimated absolute RMS force accuracy = 0.003755669
  estimated relative force accuracy = 1.1310086e-05
  using double precision KISS FFT
  3d grid and FFT values/proc = 5415 1152
Generated 0 of 6 mixed pair_coeff terms from arithmetic mixing rule
Per MPI rank memory allocation (min/avg/max) = 14.4 | 14.41 | 14.41 Mbytes
   Step        Density          Temp          Press          TotEng    
  15000000   1.1145284      300.40734     -158.79493     -13897.31     
  15100000   1.1145284      296.39865      260.85415     -13900.046    
  15200000   1.1145284      290.74013      634.27438     -13980.221    
  15300000   1.1145284      309.34574     -427.81628     -13853.781    
  15400000   1.1145284      295.81347      557.25758     -13915.107    
  15500000   1.1145284      294.81626     -237.05345     -13929.071    
  15600000   1.1145284      298.64837      698.90499     -13934.415    
  15700000   1.1145284      299.72691      82.95096      -13916.247    
  15800000   1.1145284      305.79948     -297.84788     -13901.1      
  15900000   1.1145284      291.28667     -916.4603      -13928.793    
  16000000   1.1145284      296.57184      184.57178     -14000.601    
  16100000   1.1145284      298.87118      505.40227     -13926.453    
  16200000   1.1145284      299.3247      -377.70055     -13928.774    
  16300000   1.1145284      284.42498      55.637606     -14009.499    
  16400000   1.1145284      293.8427      -319.82186     -13962.503    
  16500000   1.1145284      302.11702      310.63054     -13931.717    
  16600000   1.1145284      303.63018      336.19108     -13932.182    
  16700000   1.1145284      294.3402       446.09041     -13890.79     
  16800000   1.1145284      299.10819     -424.28489     -13955.217    
  16900000   1.1145284      292.02909     -769.65629     -13969.664    
  17000000   1.1145284      302.17211      304.85029     -13940.229    
  17100000   1.1145284      289.60749     -2157.0522     -13949.557    
  17200000   1.1145284      298.21952      638.88711     -13879.218    
  17300000   1.1145284      304.00647      602.50039     -13951.93     
  17400000   1.1145284      311.81794     -159.57191     -13874.587    
  17500000   1.1145284      299.92601      147.68409     -13915.99     
Loop time of 12859.6 on 12 procs for 2500000 steps with 1608 atoms

Performance: 16.797 ns/day, 1.429 hours/ns, 194.408 timesteps/s
93.3% CPU use with 12 MPI tasks x no OpenMP threads

MPI task timing breakdown:
Section |  min time  |  avg time  |  max time  |%varavg| %total
---------------------------------------------------------------
Pair    | 7230       | 7886.4     | 8415.9     | 457.3 | 61.33
Bond    | 33.282     | 34.732     | 35.378     |   9.3 |  0.27
Kspace  | 3052.8     | 3580.3     | 4239.3     | 680.5 | 27.84
Neigh   | 213.45     | 213.56     | 213.7      |   0.4 |  1.66
Comm    | 356.4      | 358.86     | 363.69     |  10.9 |  2.79
Output  | 0.8874     | 0.88894    | 0.89222    |   0.1 |  0.01
Modify  | 734.13     | 735.23     | 736.65     |   3.0 |  5.72
Other   |            | 49.57      |            |       |  0.39

Nlocal:            134 ave         145 max         126 min
Histogram: 1 0 4 1 2 1 2 0 0 1
Nghost:        4322.83 ave        4363 max        4285 min
Histogram: 3 1 1 1 0 2 0 0 1 3
Neighs:        49957.5 ave       57018 max       44941 min
Histogram: 2 0 2 2 1 2 2 0 0 1

Total # of neighbors = 599490
Ave neighs/atom = 372.81716
Ave special neighs/atom = 1.8656716
Neighbor list builds = 100924
Dangerous builds = 0
shell bash copy_files.sh dt_${tstep} 17.50Mstep
shell bash copy_files.sh dt_1 17.50Mstep

run ${Nrun3}
run 2500000
PPPM initialization ...
  extracting TIP4P info from pair style
  using 12-bit tables for long-range coulomb (../kspace.cpp:342)
  G vector (1/distance) = 0.31041691
  grid = 24 24 24
  stencil order = 5
  estimated absolute RMS force accuracy = 0.003755669
  estimated relative force accuracy = 1.1310086e-05
  using double precision KISS FFT
  3d grid and FFT values/proc = 5415 1152
Generated 0 of 6 mixed pair_coeff terms from arithmetic mixing rule
Per MPI rank memory allocation (min/avg/max) = 14.4 | 14.41 | 14.41 Mbytes
   Step        Density          Temp          Press          TotEng    
  17500000   1.1145284      299.92601      147.49622     -13915.99     
  17600000   1.1145284      290.94342      349.5096      -13960.392    
  17700000   1.1145284      304.88718      487.76882     -13884.187    
  17800000   1.1145284      292.82801      890.61645     -14022.86     
  17900000   1.1145284      308.67414      412.53904     -13929.723    
  18000000   1.1145284      288.05336      271.56081     -13997.633    
  18100000   1.1145284      300.75835      710.84987     -13863.409    
  18200000   1.1145284      295.25362      98.798766     -13891.311    
  18300000   1.1145284      293.96919      524.92729     -13907.942    
  18400000   1.1145284      292.58309     -24.359617     -13878.152    
  18500000   1.1145284      293.26976     -76.318127     -13981.152    
  18600000   1.1145284      301.5667       331.03572     -13977.148    
  18700000   1.1145284      289.25106      175.22793     -13877.558    
  18800000   1.1145284      296.90686      937.47847     -13951.031    
  18900000   1.1145284      297.84485      242.12314     -13889.622    
  19000000   1.1145284      286.80037      512.05647     -13891.219    
  19100000   1.1145284      290.31725     -109.20988     -13974.728    
  19200000   1.1145284      289.33951      683.74181     -13987.12     
  19300000   1.1145284      300.90133     -304.51005     -13903.34     
  19400000   1.1145284      292.96557      22.76821      -13927.089    
  19500000   1.1145284      293.02403      80.244027     -13976.237    
  19600000   1.1145284      298.95632     -348.90796     -13913.81     
  19700000   1.1145284      293.4152       586.52733     -13941.558    
  19800000   1.1145284      311.48781      527.78256     -13893.408    
  19900000   1.1145284      294.69981      560.04907     -13916.255    
  20000000   1.1145284      310.62407      98.921436     -13903.661    
Loop time of 12841.1 on 12 procs for 2500000 steps with 1608 atoms

Performance: 16.821 ns/day, 1.427 hours/ns, 194.687 timesteps/s
93.5% CPU use with 12 MPI tasks x no OpenMP threads

MPI task timing breakdown:
Section |  min time  |  avg time  |  max time  |%varavg| %total
---------------------------------------------------------------
Pair    | 7294.8     | 7899.4     | 8362.2     | 417.1 | 61.52
Bond    | 33.14      | 34.806     | 35.547     |   9.6 |  0.27
Kspace  | 3088.1     | 3549.1     | 4152.3     | 624.1 | 27.64
Neigh   | 213.22     | 213.32     | 213.49     |   0.5 |  1.66
Comm    | 356.3      | 358.59     | 363.13     |  10.5 |  2.79
Output  | 0.88668    | 0.88894    | 0.89302    |   0.2 |  0.01
Modify  | 734.34     | 735.52     | 737.1      |   3.0 |  5.73
Other   |            | 49.51      |            |       |  0.39

Nlocal:            134 ave         140 max         124 min
Histogram: 1 1 0 0 0 3 1 2 2 2
Nghost:        4303.25 ave        4352 max        4277 min
Histogram: 2 1 3 1 4 0 0 0 0 1
Neighs:        49965.4 ave       52927 max       44107 min
Histogram: 1 0 0 1 0 3 2 1 0 4

Total # of neighbors = 599585
Ave neighs/atom = 372.87624
Ave special neighs/atom = 1.8656716
Neighbor list builds = 100900
Dangerous builds = 0
shell bash copy_files.sh dt_${tstep} 20.00Mstep
shell bash copy_files.sh dt_1 20.00Mstep

run ${Nrun4}
run 5000000
PPPM initialization ...
  extracting TIP4P info from pair style
  using 12-bit tables for long-range coulomb (../kspace.cpp:342)
  G vector (1/distance) = 0.31041691
  grid = 24 24 24
  stencil order = 5
  estimated absolute RMS force accuracy = 0.003755669
  estimated relative force accuracy = 1.1310086e-05
  using double precision KISS FFT
  3d grid and FFT values/proc = 5415 1152
Generated 0 of 6 mixed pair_coeff terms from arithmetic mixing rule
Per MPI rank memory allocation (min/avg/max) = 14.4 | 14.41 | 14.41 Mbytes
   Step        Density          Temp          Press          TotEng    
  20000000   1.1145284      310.62407      98.704804     -13903.661    
  20100000   1.1145284      309.65664     -147.90015     -13876.576    
  20200000   1.1145284      290.01372      506.81575     -13956.546    
  20300000   1.1145284      300.04938      405.78511     -13954.148    
  20400000   1.1145284      297.73852      588.33691     -13941.374    
  20500000   1.1145284      312.01815      322.28156     -13856.578    
  20600000   1.1145284      298.51578     -76.270548     -13948.08     
  20700000   1.1145284      291.80804     -203.57777     -13960.149    
  20800000   1.1145284      309.29356      376.90994     -13872.544    
  20900000   1.1145284      314.8718      -20.222379     -13920.427    
  21000000   1.1145284      298.23096     -276.36689     -13910.011    
  21100000   1.1145284      300.84354     -668.31281     -13890.636    
  21200000   1.1145284      303.39122      15.784824     -13917.951    
  21300000   1.1145284      283.25847      424.4602      -13932.41     
  21400000   1.1145284      303.23417     -911.136       -13925.316    
  21500000   1.1145284      286.80185     -74.134488     -13982.926    
  21600000   1.1145284      298.79362     -40.745264     -13905.563    
  21700000   1.1145284      294.23477     -366.83312     -13911.702    
  21800000   1.1145284      306.47149     -574.26405     -13951.467    
  21900000   1.1145284      293.71431     -178.14653     -13925.635    
  22000000   1.1145284      286.85315      113.0196      -13946.79     
  22100000   1.1145284      293.81898      481.88986     -13969.358    
  22200000   1.1145284      293.64136     -9.7390452     -13922.918    
  22300000   1.1145284      307.68119     -597.66759     -13892.606    
  22400000   1.1145284      294.90494     -802.28594     -13853.663    
  22500000   1.1145284      287.25638      278.45997     -13970.889    
  22600000   1.1145284      296.64419     -52.448461     -13913.75     
  22700000   1.1145284      303.2415       613.72489     -13946.133    
  22800000   1.1145284      306.06561     -1218.5631     -13926.051    
  22900000   1.1145284      292.97364     -550.66352     -13952.082    
  23000000   1.1145284      296.67748      2.9285042     -13874.275    
  23100000   1.1145284      295.93007     -832.71136     -13871.035    
  23200000   1.1145284      305.40724      1220.4351     -13973.532    
  23300000   1.1145284      302.10835      108.82921     -13899.523    
  23400000   1.1145284      316.39753      512.99083     -13882.404    
  23500000   1.1145284      307.07577     -228.40885     -13855.197    
  23600000   1.1145284      301.13444      516.63234     -13907.01     
  23700000   1.1145284      294.77818     -81.1274       -13915.392    
  23800000   1.1145284      295.35761     -309.78394     -13979.187    
  23900000   1.1145284      297.95039      181.59324     -13921.388    
  24000000   1.1145284      287.12777     -579.95157     -13938.034    
  24100000   1.1145284      302.86268     -36.167        -13847.919    
  24200000   1.1145284      299.53815      82.350241     -13935.417    
  24300000   1.1145284      311.63939      579.39614     -13938.471    
  24400000   1.1145284      294.27937     -6.5350631     -13935.505    
  24500000   1.1145284      294.09124      1405.3894     -13906.456    
  24600000   1.1145284      295.07347     -423.95085     -13886.926    
  24700000   1.1145284      274.5425      -372.80926     -14000.653    
  24800000   1.1145284      298.72717     -85.369174     -13872.369    
  24900000   1.1145284      300.87034      518.57077     -13946.281    
  25000000   1.1145284      290.88526     -392.87263     -13868.526    
Loop time of 25638.9 on 12 procs for 5000000 steps with 1608 atoms

Performance: 16.849 ns/day, 1.424 hours/ns, 195.016 timesteps/s
93.5% CPU use with 12 MPI tasks x no OpenMP threads

MPI task timing breakdown:
Section |  min time  |  avg time  |  max time  |%varavg| %total
---------------------------------------------------------------
Pair    | 14667      | 15776      | 16761      | 574.5 | 61.53
Bond    | 66.806     | 69.724     | 71.118     |  13.3 |  0.27
Kspace  | 6085.5     | 7077       | 8191.2     | 860.7 | 27.60
Neigh   | 426.67     | 426.87     | 427.17     |   0.6 |  1.66
Comm    | 711.97     | 717.44     | 727.18     |  15.8 |  2.80
Output  | 1.7803     | 1.7834     | 1.7879     |   0.1 |  0.01
Modify  | 1468.4     | 1470.7     | 1473.7     |   4.2 |  5.74
Other   |            | 99.06      |            |       |  0.39

Nlocal:            134 ave         141 max         126 min
Histogram: 2 0 2 1 0 2 0 1 1 3
Nghost:        4324.58 ave        4370 max        4279 min
Histogram: 2 0 2 1 1 1 1 0 2 2
Neighs:        49908.8 ave       54101 max       44666 min
Histogram: 1 1 0 1 1 2 2 2 1 1

Total # of neighbors = 598905
Ave neighs/atom = 372.45336
Ave special neighs/atom = 1.8656716
Neighbor list builds = 201872
Dangerous builds = 0
shell bash copy_files.sh dt_${tstep} 25.00Mstep
shell bash copy_files.sh dt_1 25.00Mstep

run ${Nrun4}
run 5000000
PPPM initialization ...
  extracting TIP4P info from pair style
  using 12-bit tables for long-range coulomb (../kspace.cpp:342)
  G vector (1/distance) = 0.31041691
  grid = 24 24 24
  stencil order = 5
  estimated absolute RMS force accuracy = 0.003755669
  estimated relative force accuracy = 1.1310086e-05
  using double precision KISS FFT
  3d grid and FFT values/proc = 5415 1152
Generated 0 of 6 mixed pair_coeff terms from arithmetic mixing rule
Per MPI rank memory allocation (min/avg/max) = 14.4 | 14.41 | 14.41 Mbytes
   Step        Density          Temp          Press          TotEng    
  25000000   1.1145284      290.88526     -392.95764     -13868.526    
  25100000   1.1145284      305.19195     -478.74723     -13904.835    
  25200000   1.1145284      292.1575      -162.94534     -13976.352    
  25300000   1.1145284      291.7402       107.7926      -13884.628    
  25400000   1.1145284      295.57483      477.1936      -13898.041    
  25500000   1.1145284      301.18948      1494.2563     -13873.388    
  25600000   1.1145284      293.01278     -963.86942     -13901.208    
  25700000   1.1145284      303.87412     -814.8255      -14000.737    
  25800000   1.1145284      308.49873     -1301.7298     -13886.742    
  25900000   1.1145284      303.24106     -62.145787     -13929.478    
  26000000   1.1145284      291.36071      1207.9949     -13941.737    
  26100000   1.1145284      302.09744     -208.86796     -13882.964    
  26200000   1.1145284      311.2792      -351.92125     -13867.548    
  26300000   1.1145284      295.79052     -704.20742     -13889.894    
  26400000   1.1145284      284.67008      433.55005     -13982.777    
  26500000   1.1145284      312.42337      1669.9706     -13911.805    
  26600000   1.1145284      295.44444      720.70389     -13964.043    
  26700000   1.1145284      306.96696      397.22879     -13857.878    
  26800000   1.1145284      282.97636     -1552.8495     -13965.682    
  26900000   1.1145284      298.12533      40.175374     -13993.593    
  27000000   1.1145284      296.97303      431.17554     -13951.879    
  27100000   1.1145284      303.78653     -201.02993     -13844.037    
  27200000   1.1145284      303.54579      1421.807      -13889.388    
  27300000   1.1145284      300.60103     -1772.5806     -13916.468    
  27400000   1.1145284      293.27544      863.85816     -13980.284    
  27500000   1.1145284      306.49705      309.46326     -13932.711    
  27600000   1.1145284      300.32838      295.65885     -13919.747    
  27700000   1.1145284      312.19221     -318.49071     -13903.045    
  27800000   1.1145284      289.09281      1240.8471     -14002.77     
  27900000   1.1145284      301.13326     -334.1803      -13957.239    
  28000000   1.1145284      305.0725       122.55468     -13932.793    
  28100000   1.1145284      288.26201      887.07639     -14012.236    
  28200000   1.1145284      300.71348      545.91839     -13945.25     
  28300000   1.1145284      297.70464      297.30878     -13918.633    
  28400000   1.1145284      298.74421     -204.66792     -13899.035    
  28500000   1.1145284      291.69415      487.22786     -13881.947    
  28600000   1.1145284      292.75824      260.10693     -13893.479    
  28700000   1.1145284      306.02385      377.85385     -13944.923    
  28800000   1.1145284      284.68523     -1504.6521     -13947.701    
  28900000   1.1145284      313.20422     -474.40981     -13858.552    
  29000000   1.1145284      307.96842      1327.5989     -13882.343    
  29100000   1.1145284      300.8334       238.05447     -13955.344    
  29200000   1.1145284      294.75078      364.9734      -13962.731    
  29300000   1.1145284      302.07335     -531.76204     -13880.468    
  29400000   1.1145284      297.329       -382.09895     -13962.439    
  29500000   1.1145284      295.33399      148.41907     -13934.214    
  29600000   1.1145284      307.56001      268.90969     -13893.152    
  29700000   1.1145284      299.46461     -575.0654      -13906.959    
  29800000   1.1145284      294.16346      354.7851      -13953.903    
  29900000   1.1145284      297.91352      622.02497     -13974.818    
  30000000   1.1145284      289.13049     -958.51718     -13896.955    
Loop time of 25555.7 on 12 procs for 5000000 steps with 1608 atoms

Performance: 16.904 ns/day, 1.420 hours/ns, 195.651 timesteps/s
93.5% CPU use with 12 MPI tasks x no OpenMP threads

MPI task timing breakdown:
Section |  min time  |  avg time  |  max time  |%varavg| %total
---------------------------------------------------------------
Pair    | 14563      | 15701      | 16619      | 586.0 | 61.44
Bond    | 66.592     | 69.527     | 70.843     |  12.8 |  0.27
Kspace  | 6155.3     | 7069.6     | 8211.4     | 875.7 | 27.66
Neigh   | 426.48     | 426.68     | 426.98     |   0.6 |  1.67
Comm    | 712.07     | 717.47     | 727.37     |  15.8 |  2.81
Output  | 1.7788     | 1.7817     | 1.7878     |   0.2 |  0.01
Modify  | 1468.5     | 1470.8     | 1473.7     |   4.2 |  5.76
Other   |            | 99.25      |            |       |  0.39

Nlocal:            134 ave         143 max         128 min
Histogram: 2 1 0 1 4 2 1 0 0 1
Nghost:        4317.25 ave        4404 max        4234 min
Histogram: 1 2 1 1 0 3 1 1 1 1
Neighs:        49947.8 ave       53833 max       45428 min
Histogram: 2 0 0 1 4 0 1 1 1 2

Total # of neighbors = 599373
Ave neighs/atom = 372.7444
Ave special neighs/atom = 1.8656716
Neighbor list builds = 201690
Dangerous builds = 0
shell bash copy_files.sh dt_${tstep} 30.00Mstep
shell bash copy_files.sh dt_1 30.00Mstep

run ${Nrun4}
run 5000000
PPPM initialization ...
  extracting TIP4P info from pair style
  using 12-bit tables for long-range coulomb (../kspace.cpp:342)
  G vector (1/distance) = 0.31041691
  grid = 24 24 24
  stencil order = 5
  estimated absolute RMS force accuracy = 0.003755669
  estimated relative force accuracy = 1.1310086e-05
  using double precision KISS FFT
  3d grid and FFT values/proc = 5415 1152
Generated 0 of 6 mixed pair_coeff terms from arithmetic mixing rule
Per MPI rank memory allocation (min/avg/max) = 14.4 | 14.41 | 14.41 Mbytes
   Step        Density          Temp          Press          TotEng    
  30000000   1.1145284      289.13049     -958.29219     -13896.955    
  30100000   1.1145284      297.87711      1402.2618     -13876.709    
  30200000   1.1145284      299.79524     -802.32623     -13893.053    
  30300000   1.1145284      296.79124      525.94366     -13928.764    
  30400000   1.1145284      289.74159      441.41912     -13966.667    
  30500000   1.1145284      307.99028      602.88085     -13873.334    
  30600000   1.1145284      303.23366      725.15486     -13931.718    
  30700000   1.1145284      293.9078      -790.29208     -13937.908    
  30800000   1.1145284      295.43775     -567.19015     -13989.765    
  30900000   1.1145284      286.72079     -963.92735     -13975.272    
  31000000   1.1145284      311.53164     -542.75049     -13888.297    
  31100000   1.1145284      301.71773     -287.30582     -13885.226    
  31200000   1.1145284      280.30825     -103.80352     -14042.345    
  31300000   1.1145284      300.26167      538.07839     -13911.36     
  31400000   1.1145284      298.49504      373.36462     -13908.77     
  31500000   1.1145284      291.44308      440.13954     -13936.782    
  31600000   1.1145284      298.29119     -965.12728     -13912.514    
  31700000   1.1145284      303.64882      1.0629771     -13882.112    
  31800000   1.1145284      286.61385     -790.17452     -13938.642    
  31900000   1.1145284      293.66275      640.38734     -13963.2      
  32000000   1.1145284      300.31257      536.43146     -13838.453    
  32100000   1.1145284      290.5771      -436.11513     -14013.608    
  32200000   1.1145284      297.04702     -238.97902     -13919.436    
  32300000   1.1145284      301.18148     -450.89501     -13897.084    
  32400000   1.1145284      296.198        663.28487     -13958.996    
  32500000   1.1145284      290.46618      24.661767     -13969.28     
  32600000   1.1145284      300.363        913.65428     -13916.55     
  32700000   1.1145284      294.27557     -547.38245     -13987.91     
  32800000   1.1145284      308.59041     -16.885185     -13953.475    
